-50.0%_Bond__vac_1_Cd[0. 0. 0.]_-dNELECT
   1.0000000000000000     
    13.0867679999999993    0.0000000000000000    0.0000000000000000
     0.0000000000000000   13.0867679999999993    0.0000000000000000
     0.0000000000000000    0.0000000000000000   13.0867679999999993
   Cd   Te
    31    32
Direct
  0.0020587802260705  0.0047080608249955  0.4959086608926141
  0.0019662453306419  0.5046982398067473 -0.0039028228567244
  0.0016098349001454  0.5040447957908241  0.4958091870684376
  0.5020001233169311  0.0043896775082639  0.9960167111010447
  0.5018713643945175  0.0037660518853209  0.4959480899822958
  0.5019040169769998  0.5037168674286453  0.9959230660128425
  0.5015515585492171  0.5043464701440407  0.4960108893275576
  0.9950701293530613  0.2500978045086388  0.2413508717135121
  0.0079745001093998  0.2503918465902852  0.7504235606866978
  0.0101575697928768  0.7588134826907054  0.2416350021687508
  0.9943550713990748  0.7585847383448676  0.7498447740362286
  0.5010204808085299  0.2520170310645022  0.2443471965215559
  0.5030156508973489  0.2517994523729063  0.7476816474768726
  0.5031069999490893  0.7558954473590199  0.2438046116011996
  0.5008899071325439  0.7559116070096884  0.7480017590319853
  0.2453312565933246  0.9993719345052272  0.2415490941550240
  0.2453467252166979  0.0077430483743032  0.7505826018871238
  0.2523837232109302  0.5040705406677070  0.2454302553832775
  0.2514452897749141  0.5041193542864280  0.7470449769142825
  0.7591241309761600  0.0080142017415930  0.2411724173597546
  0.7587647001393377 -0.0004777126736047  0.7500695619813196
  0.7521165641156252  0.5044430062227455  0.2448269356259617
  0.7515046212933796  0.5042835858285134  0.7465750443999021
  0.2454997193253064  0.2501843183849148 -0.0074447169029222
  0.2515093615986619  0.2528509409410838  0.4957583768292346
  0.2451039773602526  0.7582793045741738  0.0003151967964105
  0.2519505586932174  0.7554198939477517  0.4964012873174057
  0.7584031265489225  0.2501141965222363  0.9996281878985611
  0.7515275113071781  0.2528490899798109  0.4961389041792504
  0.7589304728772238  0.7585344901678173 -0.0083284210539275
  0.7518472025439020  0.7554463042433560  0.4950808788827948
  0.1265539310450843  0.1297588383150252  0.3695188373274193
  0.1174291951984230  0.1215418614057130  0.8794729902519295
  0.1278145405281351  0.6292789961913404  0.3712410592206593
  0.1263533949179746  0.6304326253589430  0.8701121029285876
  0.6275918848846926  0.1278833876096372  0.3692168849804341
  0.6294865548008024  0.1280460172658841  0.8716823266045621
  0.6262195841646176  0.6295736093391282  0.3702876497509274
  0.6272655888813067  0.6307483362726554  0.8719139660006575
  0.1266958963217239  0.3788363329637399  0.1216026809201744
  0.1272947579438805  0.3790004267591726  0.6208860875403418
  0.1173415750217326  0.8885912953136549  0.1115029245748356
  0.1263473335362818  0.8789558208371585  0.6218830473275593
  0.6273343079119154  0.3776188227626841  0.1201616067544027
  0.6260437357304176  0.3787282233497153  0.6213143967209165
  0.6297456951215088  0.8802718975620389  0.1197343378000084
  0.6272652550866538  0.8798860483678543  0.6222357755073878
  0.3745308665128846  0.1282493081158202  0.1202249604044686
  0.3762045290443274  0.1282221137020535  0.6223215948060503
  0.3766213938242297  0.6304729728509836  0.1199589830420886
  0.3771414435016848  0.6296579975792260  0.6217259695398076
  0.8867185954693279  0.1210065430716347  0.1115283652333480
  0.8770780172596783  0.1298860436400504  0.6218790544777013
  0.8776265295859039  0.6307016745219068  0.1218033539729952
  0.8757918105820023  0.6294392361940840  0.6204589047527116
  0.3774998926900768  0.3784802981818939  0.3707231841788329
  0.3763847308741481  0.3774545511838202  0.8714959005715457
  0.3766886223750965  0.8798606279408473  0.3693860783609310
  0.3744889336133698  0.8801386709384004  0.8722050351144292
  0.8758538468329753  0.3788864937692080  0.3708273835163464
  0.8769650509247839  0.3790726973609972  0.8704210827124913
  0.8778352328634725  0.8789735910690551  0.3697485362624911
  0.8867910982394195  0.8883605691621649  0.8796211524246538

  0.00000000E+00  0.00000000E+00  0.00000000E+00
  0.00000000E+00  0.00000000E+00  0.00000000E+00
  0.00000000E+00  0.00000000E+00  0.00000000E+00
  0.00000000E+00  0.00000000E+00  0.00000000E+00
  0.00000000E+00  0.00000000E+00  0.00000000E+00
  0.00000000E+00  0.00000000E+00  0.00000000E+00
  0.00000000E+00  0.00000000E+00  0.00000000E+00
  0.00000000E+00  0.00000000E+00  0.00000000E+00
  0.00000000E+00  0.00000000E+00  0.00000000E+00
  0.00000000E+00  0.00000000E+00  0.00000000E+00
  0.00000000E+00  0.00000000E+00  0.00000000E+00
  0.00000000E+00  0.00000000E+00  0.00000000E+00
  0.00000000E+00  0.00000000E+00  0.00000000E+00
  0.00000000E+00  0.00000000E+00  0.00000000E+00
  0.00000000E+00  0.00000000E+00  0.00000000E+00
  0.00000000E+00  0.00000000E+00  0.00000000E+00
  0.00000000E+00  0.00000000E+00  0.00000000E+00
  0.00000000E+00  0.00000000E+00  0.00000000E+00
  0.00000000E+00  0.00000000E+00  0.00000000E+00
  0.00000000E+00  0.00000000E+00  0.00000000E+00
  0.00000000E+00  0.00000000E+00  0.00000000E+00
  0.00000000E+00  0.00000000E+00  0.00000000E+00
  0.00000000E+00  0.00000000E+00  0.00000000E+00
  0.00000000E+00  0.00000000E+00  0.00000000E+00
  0.00000000E+00  0.00000000E+00  0.00000000E+00
  0.00000000E+00  0.00000000E+00  0.00000000E+00
  0.00000000E+00  0.00000000E+00  0.00000000E+00
  0.00000000E+00  0.00000000E+00  0.00000000E+00
  0.00000000E+00  0.00000000E+00  0.00000000E+00
  0.00000000E+00  0.00000000E+00  0.00000000E+00
  0.00000000E+00  0.00000000E+00  0.00000000E+00
  0.00000000E+00  0.00000000E+00  0.00000000E+00
  0.00000000E+00  0.00000000E+00  0.00000000E+00
  0.00000000E+00  0.00000000E+00  0.00000000E+00
  0.00000000E+00  0.00000000E+00  0.00000000E+00
  0.00000000E+00  0.00000000E+00  0.00000000E+00
  0.00000000E+00  0.00000000E+00  0.00000000E+00
  0.00000000E+00  0.00000000E+00  0.00000000E+00
  0.00000000E+00  0.00000000E+00  0.00000000E+00
  0.00000000E+00  0.00000000E+00  0.00000000E+00
  0.00000000E+00  0.00000000E+00  0.00000000E+00
  0.00000000E+00  0.00000000E+00  0.00000000E+00
  0.00000000E+00  0.00000000E+00  0.00000000E+00
  0.00000000E+00  0.00000000E+00  0.00000000E+00
  0.00000000E+00  0.00000000E+00  0.00000000E+00
  0.00000000E+00  0.00000000E+00  0.00000000E+00
  0.00000000E+00  0.00000000E+00  0.00000000E+00
  0.00000000E+00  0.00000000E+00  0.00000000E+00
  0.00000000E+00  0.00000000E+00  0.00000000E+00
  0.00000000E+00  0.00000000E+00  0.00000000E+00
  0.00000000E+00  0.00000000E+00  0.00000000E+00
  0.00000000E+00  0.00000000E+00  0.00000000E+00
  0.00000000E+00  0.00000000E+00  0.00000000E+00
  0.00000000E+00  0.00000000E+00  0.00000000E+00
  0.00000000E+00  0.00000000E+00  0.00000000E+00
  0.00000000E+00  0.00000000E+00  0.00000000E+00
  0.00000000E+00  0.00000000E+00  0.00000000E+00
  0.00000000E+00  0.00000000E+00  0.00000000E+00
  0.00000000E+00  0.00000000E+00  0.00000000E+00
  0.00000000E+00  0.00000000E+00  0.00000000E+00
  0.00000000E+00  0.00000000E+00  0.00000000E+00
  0.00000000E+00  0.00000000E+00  0.00000000E+00
  0.00000000E+00  0.00000000E+00  0.00000000E+00
