30.0%_BDM_Distortion_vac_1_Cd[0. 0. 0.]_
   1.00000000000000     
    13.0867679999999993    0.0000000000000000    0.0000000000000000
     0.0000000000000000   13.0867679999999993    0.0000000000000000
     0.0000000000000000    0.0000000000000000   13.0867679999999993
   Cd   Te
    31    32
Direct
  0.0018105663270554  0.9972632154759896  0.5001561522468302
  0.0016847711088126  0.4979406797880131  0.0003043863799581
  0.0016607141070602  0.4975906384118998  0.5014452134493197
  0.5024705700793446  0.9978385600210726 -0.0003896473076071
  0.5014957691813784  0.9969401052936533  0.5005515827904128
  0.5017305147383022  0.4975736746383908  0.0002119717560419
  0.5018274079267279  0.4978513985623570  0.4998983631281703
  0.9944420153164708  0.2445532327987381  0.2466869957115778
  0.0094252975025248  0.2431129463034924  0.7560107209977462
  0.0069391683247200  0.7520279925942308  0.2463421022305961
  0.9943185029548159  0.7529830538478280  0.7549477771249213
  0.4995961632142666  0.2462130099521824  0.2490420506538854
  0.5017119349726900  0.2467868617159551  0.7515226645625145
  0.5026259579423902  0.7498369339511483  0.2477690997697920
  0.5001283548016954  0.7500337238463797  0.7518789506025829
  0.2454907417874900 -0.0049315176035557  0.2468434132055764
  0.2439576103847534  0.0034601709548887  0.7542368358611569
  0.2506358721637550  0.4978241381192842  0.2479393685949069
  0.2511794125401725  0.4978302765380091  0.7520589453773848
  0.7573189035395421  0.0032749710803832  0.2468158172863231
  0.7581892420535562  0.9947974508324745  0.7546137799244829
  0.7518783235044404  0.4978826104085531  0.2490669314200948
  0.7517038106762801  0.4977561416878888  0.7517934032940971
  0.2446480267549843  0.2424448100223622  0.9952990665661611
  0.2518386695493259  0.2472603371098496  0.5000915650054657
  0.2455373017435912  0.7531384740826027  0.0036098316089554
  0.2512698773313021  0.7476117589504274  0.5005595735880537
  0.7576664531042187  0.2440189667889822  0.0048518297746234
  0.7516432513312622  0.2467709806369571  0.5009827641261353
  0.7572835783147269  0.7526499922212202  0.9958724178124495
  0.7518790822179754  0.7481639745027263  0.4997768145098405
  0.1258375255078793  0.1238889587009034  0.3747184245007165
  0.1157984521056189  0.1121277672652360  0.8857804307272682
  0.1263193234286162  0.6223222739368452  0.3750400560811262
  0.1260529430139163  0.6243710504883021  0.8750187304627750
  0.6259798668719018  0.1222897296733634  0.3747973163257186
  0.6289270793335159  0.1230660141783132  0.8758370654345971
  0.6258330075683262  0.6233253480297835  0.3743994741084806
  0.6263766002608300  0.6243127496690510  0.8760355876670749
  0.1259169199996013  0.3713100088283752  0.1251100385477430
  0.1271339033150617  0.3723217782245541  0.6261676835564911
  0.1176212858654255  0.8808593825485158  0.1181330921277964
  0.1261828558213144  0.8719868736202310  0.6261569563128739
  0.6263892997017935  0.3711782234128461  0.1252298836105654
  0.6260092337692073  0.3726860678366778  0.6259308661632931
  0.6289973132946332  0.8743318822885745  0.1248761321996043
  0.6276635818996054  0.8734696482729484  0.6267753892010696
  0.3746380655499379  0.1214993116116950  0.1242768087157287
  0.3761506497112575  0.1219755275889902  0.6262392389500390
  0.3758358518259261  0.6245014463428884  0.1241513987428576
  0.3768069862634246  0.6225223076409929  0.6261209325949033
  0.8854523898557993  0.1148234320872653  0.1181510987038620
  0.8778367629924909  0.1234813981479751  0.6264838196123350
  0.8763142366200549  0.6238673114660696  0.1255329433066144
  0.8758059361168803  0.6231231871331213  0.6259578277798125
  0.3761932886195744  0.3733258305743272  0.3744265848093318
  0.3757774967996774  0.3712707034623938  0.8766176331666483
  0.3758644774467540  0.8728095303000618  0.3740083115193971
  0.3740728118894285  0.8746766165953682  0.8755595588550354
  0.8757500131600318  0.3731671600267232  0.3759720901226399
  0.8767000985445832  0.3716044270766466  0.8752286248600009
  0.8761864792613816  0.8725219937371879  0.3744627548218860
  0.8856383980898689  0.8817894956994150  0.8846965043592225
 
  0.00000000E+00  0.00000000E+00  0.00000000E+00
  0.00000000E+00  0.00000000E+00  0.00000000E+00
  0.00000000E+00  0.00000000E+00  0.00000000E+00
  0.00000000E+00  0.00000000E+00  0.00000000E+00
  0.00000000E+00  0.00000000E+00  0.00000000E+00
  0.00000000E+00  0.00000000E+00  0.00000000E+00
  0.00000000E+00  0.00000000E+00  0.00000000E+00
  0.00000000E+00  0.00000000E+00  0.00000000E+00
  0.00000000E+00  0.00000000E+00  0.00000000E+00
  0.00000000E+00  0.00000000E+00  0.00000000E+00
  0.00000000E+00  0.00000000E+00  0.00000000E+00
  0.00000000E+00  0.00000000E+00  0.00000000E+00
  0.00000000E+00  0.00000000E+00  0.00000000E+00
  0.00000000E+00  0.00000000E+00  0.00000000E+00
  0.00000000E+00  0.00000000E+00  0.00000000E+00
  0.00000000E+00  0.00000000E+00  0.00000000E+00
  0.00000000E+00  0.00000000E+00  0.00000000E+00
  0.00000000E+00  0.00000000E+00  0.00000000E+00
  0.00000000E+00  0.00000000E+00  0.00000000E+00
  0.00000000E+00  0.00000000E+00  0.00000000E+00
  0.00000000E+00  0.00000000E+00  0.00000000E+00
  0.00000000E+00  0.00000000E+00  0.00000000E+00
  0.00000000E+00  0.00000000E+00  0.00000000E+00
  0.00000000E+00  0.00000000E+00  0.00000000E+00
  0.00000000E+00  0.00000000E+00  0.00000000E+00
  0.00000000E+00  0.00000000E+00  0.00000000E+00
  0.00000000E+00  0.00000000E+00  0.00000000E+00
  0.00000000E+00  0.00000000E+00  0.00000000E+00
  0.00000000E+00  0.00000000E+00  0.00000000E+00
  0.00000000E+00  0.00000000E+00  0.00000000E+00
  0.00000000E+00  0.00000000E+00  0.00000000E+00
  0.00000000E+00  0.00000000E+00  0.00000000E+00
  0.00000000E+00  0.00000000E+00  0.00000000E+00
  0.00000000E+00  0.00000000E+00  0.00000000E+00
  0.00000000E+00  0.00000000E+00  0.00000000E+00
  0.00000000E+00  0.00000000E+00  0.00000000E+00
  0.00000000E+00  0.00000000E+00  0.00000000E+00
  0.00000000E+00  0.00000000E+00  0.00000000E+00
  0.00000000E+00  0.00000000E+00  0.00000000E+00
  0.00000000E+00  0.00000000E+00  0.00000000E+00
  0.00000000E+00  0.00000000E+00  0.00000000E+00
  0.00000000E+00  0.00000000E+00  0.00000000E+00
  0.00000000E+00  0.00000000E+00  0.00000000E+00
  0.00000000E+00  0.00000000E+00  0.00000000E+00
  0.00000000E+00  0.00000000E+00  0.00000000E+00
  0.00000000E+00  0.00000000E+00  0.00000000E+00
  0.00000000E+00  0.00000000E+00  0.00000000E+00
  0.00000000E+00  0.00000000E+00  0.00000000E+00
  0.00000000E+00  0.00000000E+00  0.00000000E+00
  0.00000000E+00  0.00000000E+00  0.00000000E+00
  0.00000000E+00  0.00000000E+00  0.00000000E+00
  0.00000000E+00  0.00000000E+00  0.00000000E+00
  0.00000000E+00  0.00000000E+00  0.00000000E+00
  0.00000000E+00  0.00000000E+00  0.00000000E+00
  0.00000000E+00  0.00000000E+00  0.00000000E+00
  0.00000000E+00  0.00000000E+00  0.00000000E+00
  0.00000000E+00  0.00000000E+00  0.00000000E+00
  0.00000000E+00  0.00000000E+00  0.00000000E+00
  0.00000000E+00  0.00000000E+00  0.00000000E+00
  0.00000000E+00  0.00000000E+00  0.00000000E+00
  0.00000000E+00  0.00000000E+00  0.00000000E+00
  0.00000000E+00  0.00000000E+00  0.00000000E+00
  0.00000000E+00  0.00000000E+00  0.00000000E+00
