&CONTROL
   calculation      = 'relax'
   title            = 'espresso'
   nstep            = 300
   tstress          = .false.
   tprnfor          = .true.
/
&SYSTEM
   ibrav            = 0
   tot_charge       = 0
   ecutwfc          = 30.0
   nosym            = .true.
   occupations      = 'smearing'
   degauss          = 0.0015
   nspin            = 2
   input_dft        = 'HSE'
   exx_fraction     = 0.25
   starting_magnetization(1) = 0.0
   starting_magnetization(2) = 0.0
   ntyp             = 2
   nat              = 63
/
&ELECTRONS
   ecutwfc          = 33.0
/
&IONS
/
&CELL
/

ATOMIC_SPECIES
Cd  112.414 Cd_pbe_v1.uspp.F.UPF
Te  127.6 Te.pbe-n-rrkjus_psl.1.0.0.UPF

K_POINTS automatic
1 1 1  0 0 0

CELL_PARAMETERS angstrom
13.08676800000000 0.00000000000000 0.00000000000000
0.00000000000000 13.08676800000000 0.00000000000000
0.00000000000000 0.00000000000000 13.08676800000000

ATOMIC_POSITIONS angstrom
Cd  6.3998928399 -0.2385151837 0.2717017816
Cd  10.2645048801 3.5053076959 -0.0135321750
Cd  9.9414406364 -0.0113488302 3.1330585596
Cd  2.9027096994 3.2294764329 -0.2883727639
Cd  7.0218513569 6.3476907038 0.2934671812
Cd  9.6865866236 9.1144180793 -0.0941166578
Cd  3.3514525834 0.0952433355 3.2930031417
Cd  6.4503376309 2.7998390985 3.1815963828
Cd  10.1615448881 6.4202869479 3.5744142146
Cd  6.1051050217 -0.0492914315 6.9228570442
Cd  10.1434643823 3.2765769895 7.1305062250
Cd  10.3187165181 -0.6842649442 10.1562219746
Cd  0.2868375728 6.2291111100 0.3471549177
Cd  2.9519660741 9.9316893272 0.1660213240
Cd  0.4199934238 3.3859640414 3.0818964651
Cd  3.1199954783 6.3423910410 3.1716572177
Cd  6.4343753422 9.7039959522 2.9480614051
Cd  0.2573819650 -0.0102338238 6.7913824972
Cd  3.6622940322 3.3490549832 6.6831566402
Cd  6.8955322965 6.3664292031 6.4659386536
Cd  9.8143355176 9.8666299070 6.2555605954
Cd  3.5124571376 -0.1837771500 10.0775386226
Cd  6.3647381691 3.2172215502 9.8810735404
Cd  9.3834495288 6.2323203692 9.7888888342
Cd  -0.2285938045 9.4968884424 3.5103913778
Cd  -0.2787873991 7.0412699217 6.5801776846
Cd  3.2695187347 9.9710944497 6.5121592001
Cd  0.4773222595 3.3603628136 10.2770502215
Cd  3.5005459698 6.6341124961 9.4452566663
Cd  6.7451918980 10.0498072914 9.5929891961
Cd  0.2431794199 9.7506018847 9.7245642959
Te  11.2997822700 5.0187209321 5.1533243270
Te  1.7833437308 8.3725061620 5.1968322974
Te  1.4317034215 5.1047393632 8.6996354803
Te  5.2108816628 5.2072009397 4.9474309841
Te  8.2824201729 8.1864383824 4.5760766404
Te  11.4921362208 11.2531667527 5.0811463639
Te  1.3273666607 1.5517570052 4.5464792201
Te  7.6355771855 5.2179986729 8.4849832746
Te  11.7393911002 8.4303468520 7.9744442412
Te  1.6770642906 11.5168340802 8.0240863225
Te  11.6939575268 5.2674397134 11.3477002657
Te  1.3807784879 7.8884020396 11.0834456790
Te  1.7798884964 4.7490264262 1.7069286434
Te  4.4991439186 11.5137729195 4.9829462335
Te  7.7580835167 1.5564767319 5.2953417096
Te  5.1468580531 8.0908851643 8.4919150469
Te  8.1760742053 11.5858674499 8.5010287837
Te  11.4410379032 1.3712645988 8.3494584775
Te  5.0460973600 4.6483868121 11.3899691827
Te  8.4464953962 7.7956329835 11.6341056436
Te  11.9416630231 11.9416630231 11.9416630231
Te  1.1451049769 1.1451049769 11.9416630231
Te  8.4949140482 4.7792787949 1.7829148988
Te  11.8382652606 8.4193074354 1.4585392335
Te  1.3919859717 11.4343596217 2.2873945202
Te  4.7542068544 1.6612442339 8.7747677510
Te  4.7676801086 11.4891293322 11.4551487889
Te  8.1873297017 1.7281654287 10.9929899678
Te  4.5600617244 8.7581193452 1.6241114791
Te  8.6987769150 11.2650332852 2.2681895497
Te  11.4024219992 1.9017224126 1.6507617087
Te  4.4556361870 1.6633943262 1.8009105481

