-47.5%_Bond__vac_1_Cd[0. 0. 0.]_-dNELECT
   1.0000000000000000     
    13.0867679999999993    0.0000000000000000    0.0000000000000000
     0.0000000000000000   13.0867679999999993    0.0000000000000000
     0.0000000000000000    0.0000000000000000   13.0867679999999993
   Cd   Te
    31    32
Direct
  0.0130722391520258  0.0042263176864873  0.4961724542127214
  0.0129140280730281  0.5042928699262085 -0.0039109429625039
  0.0020903023538007  0.5040810430960841  0.4957891157707083
  0.5137467038993500  0.0042825531584169  0.9960979667163988
  0.4943690749348299  0.0041064384887302  0.4955526891193260
  0.4943856313166596  0.5043281510112044  0.9958038724629318
  0.5031201849987070  0.5042380618834188  0.4958548027348510
  0.9893203575352327  0.2499800379962887  0.2418328872586516
  0.9717962379855702  0.2791707236853977  0.7209832231350054
  0.9717997941703506  0.7293156249695073  0.2710021551241317
  0.9890817257196355  0.7583229676104365  0.7500337094745212
  0.5105098219940941  0.2616649348979733  0.2531859173893254
  0.4995204705488859  0.2535116520223690  0.7465281127626132
  0.4993860853757330  0.7547944438104639  0.2452622650884857
  0.5103713102939083  0.7468348650689987  0.7384517325993202
  0.2566525310825948  0.0123975251943816  0.2329361793775071
  0.2573224877891804 -0.0040118231687202  0.7586298660021917
  0.2509224101488212  0.5011448549363183  0.2411900513162474
  0.2508482006715586  0.5071656732664016  0.7506076902254978
  0.7537698743771108  0.0135716835048079  0.2391783321084112
  0.7533909104562025 -0.0049991269083996  0.7525300183739980
  0.7511018008523415  0.5047283521284377  0.2442791376932681
  0.7510150811110576  0.5035155522060499  0.7475083988994158
  0.2570922008170997  0.2414979345514243  0.0041201819811605
  0.2510066870917623  0.2497114834875836  0.4927993971948547
  0.2567693709735001  0.7671607850488136  0.9875164874748851
  0.2507259521600070  0.7587158758325266  0.4991015239942422
  0.7535880141442948  0.2477014636727920  0.0051116836907688
  0.7508951819959936  0.2525709696428545  0.4966340987564465
  0.7534166521761820  0.7610539156678738 -0.0132454564105168
  0.7510933076174985  0.7558748284386132  0.4953265320066034
  0.1272902209372543  0.1297086591105935  0.3641732499997406
  0.1353592672734675  0.0786310763672354  0.9213430292127280
  0.1292204761749996  0.6289218834164345  0.3710576260672680
  0.1271923476708548  0.6360779675034383  0.8703610861926292
  0.6263093512486165  0.1273463050222799  0.3746987072865144
  0.6304329487778074  0.1323284080503163  0.8679331420489822
  0.6262684714852289  0.6303354224045231  0.3697702290217356
  0.6263364814456638  0.6253575251092488  0.8727644406500696
  0.1273088081383699  0.3722458261825925  0.1213495837583426
  0.1292025860440896  0.3794399574428228  0.6206464604307560
  0.1350534067675626  0.9302132799975812  0.0697129092400952
  0.1272986046713757  0.8787163884271465  0.6280028782048510
  0.6262008633120842  0.3831952752211583  0.1188525916240846
  0.6261593933347968  0.3781415198347359  0.6219407024391597
  0.6304363735666160  0.8763175299848858  0.1241423573116671
  0.6261169560596783  0.8812175568239381  0.6168998441686270
  0.3961537226670023  0.1329531171005740  0.1249355015712610
  0.3701350683147763  0.1271451582862277  0.6258297526173329
  0.3699054183846232  0.6344409258377729  0.1187304679503778
  0.3753240078605091  0.6275104873938477  0.6194115739623787
  0.8839352318665672  0.1207212535058642  0.1122066007215814
  0.8760126521735389  0.1230024120404677  0.6187312055448034
  0.8761128012354221  0.6272524338127226  0.1146964439265486
  0.8750644533886619  0.6278534905011713  0.6196460137004650
  0.3754553848361571  0.3807857026245932  0.3723803401234713
  0.3700836523841236  0.3741472953623901  0.8728782074362057
  0.3697281068374684  0.8811355792325375  0.3657326024075471
  0.3964062664856176  0.8753543387962049  0.8672383468550672
  0.8749425506229649  0.3802162098870404  0.3721130815949475
  0.8761632380029144  0.3814455517084971  0.8771218035468225
  0.8762422407047049  0.8855912634465063  0.3731450256969476
  0.8836490155094868  0.8877435667509073  0.8793901111155404

  0.00000000E+00  0.00000000E+00  0.00000000E+00
  0.00000000E+00  0.00000000E+00  0.00000000E+00
  0.00000000E+00  0.00000000E+00  0.00000000E+00
  0.00000000E+00  0.00000000E+00  0.00000000E+00
  0.00000000E+00  0.00000000E+00  0.00000000E+00
  0.00000000E+00  0.00000000E+00  0.00000000E+00
  0.00000000E+00  0.00000000E+00  0.00000000E+00
  0.00000000E+00  0.00000000E+00  0.00000000E+00
  0.00000000E+00  0.00000000E+00  0.00000000E+00
  0.00000000E+00  0.00000000E+00  0.00000000E+00
  0.00000000E+00  0.00000000E+00  0.00000000E+00
  0.00000000E+00  0.00000000E+00  0.00000000E+00
  0.00000000E+00  0.00000000E+00  0.00000000E+00
  0.00000000E+00  0.00000000E+00  0.00000000E+00
  0.00000000E+00  0.00000000E+00  0.00000000E+00
  0.00000000E+00  0.00000000E+00  0.00000000E+00
  0.00000000E+00  0.00000000E+00  0.00000000E+00
  0.00000000E+00  0.00000000E+00  0.00000000E+00
  0.00000000E+00  0.00000000E+00  0.00000000E+00
  0.00000000E+00  0.00000000E+00  0.00000000E+00
  0.00000000E+00  0.00000000E+00  0.00000000E+00
  0.00000000E+00  0.00000000E+00  0.00000000E+00
  0.00000000E+00  0.00000000E+00  0.00000000E+00
  0.00000000E+00  0.00000000E+00  0.00000000E+00
  0.00000000E+00  0.00000000E+00  0.00000000E+00
  0.00000000E+00  0.00000000E+00  0.00000000E+00
  0.00000000E+00  0.00000000E+00  0.00000000E+00
  0.00000000E+00  0.00000000E+00  0.00000000E+00
  0.00000000E+00  0.00000000E+00  0.00000000E+00
  0.00000000E+00  0.00000000E+00  0.00000000E+00
  0.00000000E+00  0.00000000E+00  0.00000000E+00
  0.00000000E+00  0.00000000E+00  0.00000000E+00
  0.00000000E+00  0.00000000E+00  0.00000000E+00
  0.00000000E+00  0.00000000E+00  0.00000000E+00
  0.00000000E+00  0.00000000E+00  0.00000000E+00
  0.00000000E+00  0.00000000E+00  0.00000000E+00
  0.00000000E+00  0.00000000E+00  0.00000000E+00
  0.00000000E+00  0.00000000E+00  0.00000000E+00
  0.00000000E+00  0.00000000E+00  0.00000000E+00
  0.00000000E+00  0.00000000E+00  0.00000000E+00
  0.00000000E+00  0.00000000E+00  0.00000000E+00
  0.00000000E+00  0.00000000E+00  0.00000000E+00
  0.00000000E+00  0.00000000E+00  0.00000000E+00
  0.00000000E+00  0.00000000E+00  0.00000000E+00
  0.00000000E+00  0.00000000E+00  0.00000000E+00
  0.00000000E+00  0.00000000E+00  0.00000000E+00
  0.00000000E+00  0.00000000E+00  0.00000000E+00
  0.00000000E+00  0.00000000E+00  0.00000000E+00
  0.00000000E+00  0.00000000E+00  0.00000000E+00
  0.00000000E+00  0.00000000E+00  0.00000000E+00
  0.00000000E+00  0.00000000E+00  0.00000000E+00
  0.00000000E+00  0.00000000E+00  0.00000000E+00
  0.00000000E+00  0.00000000E+00  0.00000000E+00
  0.00000000E+00  0.00000000E+00  0.00000000E+00
  0.00000000E+00  0.00000000E+00  0.00000000E+00
  0.00000000E+00  0.00000000E+00  0.00000000E+00
  0.00000000E+00  0.00000000E+00  0.00000000E+00
  0.00000000E+00  0.00000000E+00  0.00000000E+00
  0.00000000E+00  0.00000000E+00  0.00000000E+00
  0.00000000E+00  0.00000000E+00  0.00000000E+00
  0.00000000E+00  0.00000000E+00  0.00000000E+00
  0.00000000E+00  0.00000000E+00  0.00000000E+00
  0.00000000E+00  0.00000000E+00  0.00000000E+00
