-0.0%_BDM_Distortion_vac_1_Cd[0. 0. 0.]_
   1.00000000000000     
    13.0867679999999993    0.0000000000000000    0.0000000000000000
     0.0000000000000000   13.0867679999999993    0.0000000000000000
     0.0000000000000000    0.0000000000000000   13.0867679999999993
   Cd   Te
    31    32
Direct
  0.0021216157373562  0.9978319684059248  0.4983579625513737
  0.0021901899056854  0.4976578222922815  0.9986435141562281
  0.0019896967234232  0.4976475235037753  0.4998940967136724
  0.5021796712618148  0.9980834803114731  0.9981188525812928
  0.5012318251397960  0.9965118981530993  0.4996711504627197
  0.5013157981516770  0.4975269112492012 -0.0011765415701358
  0.5017585995654146  0.4978392354750132  0.4983430475329288
  0.9926261606412539  0.2437035315893548  0.2455710108025019
  0.0045801339253284  0.2434637663126333  0.7531547448967703
  0.0100965473059322  0.7540250481872869  0.2444526283135922
  0.9946005525930423  0.7527473616390306  0.7547184230060369
  0.4999445355955912  0.2463464145418513  0.2482973922654608
  0.5017334919866830  0.2460435691465092  0.7506161084659373
  0.5023919394408225  0.7487028407770019  0.2476878221422427
  0.5009006126504636  0.7482111460226538  0.7510661585082479
  0.2451760923196090  0.9910956380872604  0.2453401792015279
  0.2451359596115833  0.0000436009753607  0.7530877923292694
  0.2510860004848160  0.4973579021377901  0.2477620923559914
  0.2504557154027363  0.4968777053983665  0.7515322328441748
  0.7574637279778599  0.0047520283485340  0.2446490206373373
  0.7575420648278310  0.9938073077524250  0.7544915222328508
  0.7522963696549444  0.4989227917896438  0.2476754112533238
  0.7522300659899039  0.4981208361285254  0.7501213409310646
  0.2447491129771241  0.2415535009989612 -0.0022754488152944
  0.2505455646863970  0.2460483417580734  0.4989491191686889
  0.2449699468073439  0.7530536235554435  0.0051298289760099
  0.2513446296096160  0.7468556638356844  0.5002567944113585
  0.7572023988809429  0.2444943563427311  0.0054184526175472
  0.7507508007278240  0.2472671601695246  0.5000295275194425
  0.7577872153466200  0.7530943010889185 -0.0029287328640935
  0.7529331212533215  0.7499823091869692  0.4986311217356162
  0.1260390840750111  0.1234435536300410  0.3720547993858053
  0.1170322527126988  0.1146587561506376  0.8804484953603051
  0.1267665945514854  0.6228309741977734  0.3735723195842992
  0.1263650400227272  0.6243143016973892  0.8739394691299335
  0.6260325104471408  0.1226479118686385  0.3736964019283824
  0.6288877545284137  0.1235955512279183  0.8746950331643629
  0.6271522977011607  0.6239115058644630  0.3738608428184105
  0.6282220432504273  0.6246633600009976  0.8753640343796506
  0.1252782265150457  0.3711332870726015  0.1247232103029857
  0.1264920163229229  0.3716191022402830  0.6248940212660026
  0.1167921917919475  0.8838295251286009  0.1131736866543635
  0.1256528755291704  0.8716333057698848  0.6245768418978551
  0.6260276577677459  0.3726428105284415  0.1239875786297761
  0.6255317618291507  0.3736642473737079  0.6248642228165893
  0.6287682691009328  0.8748627466891464  0.1239730784017873
  0.6274180115231860  0.8736190440616881  0.6258009239120083
  0.3747675063586425  0.1209526151163868  0.1239126838167197
  0.3754125061293834  0.1216485305685443  0.6253049820958991
  0.3760923526146149  0.6239307408523443  0.1227872841502972
  0.3766584451002672  0.6216155118580554  0.6251319608724881
  0.8860956056985649  0.1152285473521310  0.1138898863506712
  0.8760277049279461  0.1227349929003144  0.6240101967933461
  0.8786068828614032  0.6247813674262409  0.1242300438373484
  0.8763621055007130  0.6239657650838164  0.6242595044367893
  0.3760411719113453  0.3725832121072291  0.3739517355139315
  0.3749401759394846  0.3700741296873555  0.8757194065735323
  0.3761090496570939  0.8721780851523754  0.3736940938353659
  0.3748570948214075  0.8736696326243905  0.8744701391645265
  0.8752266404166281  0.3738310705312397  0.3745939746442504
  0.8760437143316034  0.3725767347838227  0.8739549631712303
  0.8768595723358611  0.8740434776267240  0.3715207252903392
  0.8861617265430848  0.8827530176655278  0.8833408344570406
 
  0.00000000E+00  0.00000000E+00  0.00000000E+00
  0.00000000E+00  0.00000000E+00  0.00000000E+00
  0.00000000E+00  0.00000000E+00  0.00000000E+00
  0.00000000E+00  0.00000000E+00  0.00000000E+00
  0.00000000E+00  0.00000000E+00  0.00000000E+00
  0.00000000E+00  0.00000000E+00  0.00000000E+00
  0.00000000E+00  0.00000000E+00  0.00000000E+00
  0.00000000E+00  0.00000000E+00  0.00000000E+00
  0.00000000E+00  0.00000000E+00  0.00000000E+00
  0.00000000E+00  0.00000000E+00  0.00000000E+00
  0.00000000E+00  0.00000000E+00  0.00000000E+00
  0.00000000E+00  0.00000000E+00  0.00000000E+00
  0.00000000E+00  0.00000000E+00  0.00000000E+00
  0.00000000E+00  0.00000000E+00  0.00000000E+00
  0.00000000E+00  0.00000000E+00  0.00000000E+00
  0.00000000E+00  0.00000000E+00  0.00000000E+00
  0.00000000E+00  0.00000000E+00  0.00000000E+00
  0.00000000E+00  0.00000000E+00  0.00000000E+00
  0.00000000E+00  0.00000000E+00  0.00000000E+00
  0.00000000E+00  0.00000000E+00  0.00000000E+00
  0.00000000E+00  0.00000000E+00  0.00000000E+00
  0.00000000E+00  0.00000000E+00  0.00000000E+00
  0.00000000E+00  0.00000000E+00  0.00000000E+00
  0.00000000E+00  0.00000000E+00  0.00000000E+00
  0.00000000E+00  0.00000000E+00  0.00000000E+00
  0.00000000E+00  0.00000000E+00  0.00000000E+00
  0.00000000E+00  0.00000000E+00  0.00000000E+00
  0.00000000E+00  0.00000000E+00  0.00000000E+00
  0.00000000E+00  0.00000000E+00  0.00000000E+00
  0.00000000E+00  0.00000000E+00  0.00000000E+00
  0.00000000E+00  0.00000000E+00  0.00000000E+00
  0.00000000E+00  0.00000000E+00  0.00000000E+00
  0.00000000E+00  0.00000000E+00  0.00000000E+00
  0.00000000E+00  0.00000000E+00  0.00000000E+00
  0.00000000E+00  0.00000000E+00  0.00000000E+00
  0.00000000E+00  0.00000000E+00  0.00000000E+00
  0.00000000E+00  0.00000000E+00  0.00000000E+00
  0.00000000E+00  0.00000000E+00  0.00000000E+00
  0.00000000E+00  0.00000000E+00  0.00000000E+00
  0.00000000E+00  0.00000000E+00  0.00000000E+00
  0.00000000E+00  0.00000000E+00  0.00000000E+00
  0.00000000E+00  0.00000000E+00  0.00000000E+00
  0.00000000E+00  0.00000000E+00  0.00000000E+00
  0.00000000E+00  0.00000000E+00  0.00000000E+00
  0.00000000E+00  0.00000000E+00  0.00000000E+00
  0.00000000E+00  0.00000000E+00  0.00000000E+00
  0.00000000E+00  0.00000000E+00  0.00000000E+00
  0.00000000E+00  0.00000000E+00  0.00000000E+00
  0.00000000E+00  0.00000000E+00  0.00000000E+00
  0.00000000E+00  0.00000000E+00  0.00000000E+00
  0.00000000E+00  0.00000000E+00  0.00000000E+00
  0.00000000E+00  0.00000000E+00  0.00000000E+00
  0.00000000E+00  0.00000000E+00  0.00000000E+00
  0.00000000E+00  0.00000000E+00  0.00000000E+00
  0.00000000E+00  0.00000000E+00  0.00000000E+00
  0.00000000E+00  0.00000000E+00  0.00000000E+00
  0.00000000E+00  0.00000000E+00  0.00000000E+00
  0.00000000E+00  0.00000000E+00  0.00000000E+00
  0.00000000E+00  0.00000000E+00  0.00000000E+00
  0.00000000E+00  0.00000000E+00  0.00000000E+00
  0.00000000E+00  0.00000000E+00  0.00000000E+00
  0.00000000E+00  0.00000000E+00  0.00000000E+00
  0.00000000E+00  0.00000000E+00  0.00000000E+00
