#######################################################
#CASTEP cell file: /home/ireaml/Python_Modules/vac_1_Cd_0/Bond_Distortion_30.0%/castep.cell
#Created using the Atomic Simulation Environment (ASE)#
#######################################################

%BLOCK LATTICE_CART
13.086768  0.000000  0.000000
 0.000000 13.086768  0.000000
 0.000000  0.000000 13.086768
%ENDBLOCK LATTICE_CART

%BLOCK POSITIONS_ABS
Cd  0.205294  0.220511  6.561260
Cd  0.355306  6.487454  0.131162
Cd -0.018970  6.518168  6.257035
Cd  6.179695  0.262398 -0.239085
Cd  6.393652 -0.070510  6.304777
Cd  6.617039  6.787162 -0.353010
Cd  6.283858  6.880033  6.868008
Cd -0.455834  3.571306  3.124414
Cd -0.138387  3.488348  9.487520
Cd -0.099055  9.256576  3.324434
Cd -0.066625  9.625872 10.050041
Cd  6.550996  3.691171  3.056288
Cd  6.758676  3.327246  9.583210
Cd  6.636076  9.849707  3.788313
Cd  6.608275 10.052826  9.935399
Cd  3.028853 -0.182811  3.547690
Cd  3.109899  0.070260  9.660198
Cd  3.557473  6.442475  3.208593
Cd  3.432591  6.770504  9.501273
Cd  9.711709 -0.483418  3.404002
Cd 10.002230  0.108044  9.651681
Cd 10.171427  6.624179  3.165538
Cd  9.308513  6.401809  9.753388
Cd  3.399453  3.474210 -0.180831
Cd  3.738774  3.491036  6.313553
Cd  3.341456  9.584908 -0.354437
Cd  3.766207  9.436820  6.491817
Cd 10.150218  3.529163 -0.123821
Cd 10.043575  3.185236  6.991714
Cd 10.024212  9.936445  0.110487
Cd  9.751072  9.845503  6.461401
Te  1.554143  1.973402  4.923374
Te  2.126624  2.126624 10.960144
Te  1.717454  8.282029  5.499843
Te  1.477344  8.091485 11.088470
Te  8.265338  1.604358  4.842549
Te  8.223526  1.445202 11.074148
Te  8.154670  8.417128  4.977731
Te  8.025655  8.432566 11.679300
Te  1.491028  4.818344  1.986594
Te  1.663899  4.799020  7.888536
Te  2.126624 10.960144  2.126624
Te  1.666898 11.672231  8.427836
Te  8.037659  4.861865  1.475221
Te  8.079000  5.065492  7.435791
Te  7.959693 11.568006  1.478254
Te  8.823170 11.919672  7.934401
Te  4.719590  1.671300  2.113188
Te  4.910836  1.491153  7.765552
Te  5.314460  7.955563  1.457993
Te  4.977066  8.409876  8.370143
Te 11.709292  1.830606  1.270927
Te 11.843805  1.670484  7.784127
Te 11.723982  8.171289  1.377652
Te 11.774560  8.192684  8.227533
Te  5.108592  4.907591  4.833772
Te  5.026610  4.928212 11.388073
Te  4.966202 11.587066  4.809174
Te  5.126404 11.180562 11.495878
Te 11.539618  4.990696  5.276250
Te 11.508646  5.165115 11.460092
Te 11.559529 11.895370  4.746923
Te 11.072262 11.648637 11.378040
%ENDBLOCK POSITIONS_ABS

KPOINT_MP_GRID: 1 1 1
KPOINT_MP_OFFSET: 0.000000 0.000000 0.000000
