#######################################################
#CASTEP cell file: /Users/ireaml/Library/CloudStorage/OneDrive-ImperialCollegeLondon/07_Python_Packages/ShakeNBreak/docs/v_Cd_s0_0/Unperturbed/castep.cell
#Created using the Atomic Simulation Environment (ASE)#
#######################################################

%BLOCK LATTICE_CART
13.086768  0.000000  0.000000
 0.000000 13.086768  0.000000
 0.000000  0.000000 13.086768
%ENDBLOCK LATTICE_CART

%BLOCK POSITIONS_ABS
Cd  6.543384  0.000000  0.000000
Cd  9.815076  3.271692  0.000000
Cd  9.815076  0.000000  3.271692
Cd  3.271692  3.271692  0.000000
Cd  6.543384  6.543384  0.000000
Cd  9.815076  9.815076  0.000000
Cd  3.271692  0.000000  3.271692
Cd  6.543384  3.271692  3.271692
Cd  9.815076  6.543384  3.271692
Cd  6.543384  0.000000  6.543384
Cd  9.815076  3.271692  6.543384
Cd  9.815076  0.000000  9.815076
Cd  0.000000  6.543384  0.000000
Cd  3.271692  9.815076  0.000000
Cd  0.000000  3.271692  3.271692
Cd  3.271692  6.543384  3.271692
Cd  6.543384  9.815076  3.271692
Cd  0.000000  0.000000  6.543384
Cd  3.271692  3.271692  6.543384
Cd  6.543384  6.543384  6.543384
Cd  9.815076  9.815076  6.543384
Cd  3.271692  0.000000  9.815076
Cd  6.543384  3.271692  9.815076
Cd  9.815076  6.543384  9.815076
Cd  0.000000  9.815076  3.271692
Cd  0.000000  6.543384  6.543384
Cd  3.271692  9.815076  6.543384
Cd  0.000000  3.271692  9.815076
Cd  3.271692  6.543384  9.815076
Cd  6.543384  9.815076  9.815076
Cd  0.000000  9.815076  9.815076
Te 11.450922  4.907538  4.907538
Te  1.635846  8.179230  4.907538
Te  1.635846  4.907538  8.179230
Te  4.907538  4.907538  4.907538
Te  8.179230  8.179230  4.907538
Te 11.450922 11.450922  4.907538
Te  1.635846  1.635846  4.907538
Te  8.179230  4.907538  8.179230
Te 11.450922  8.179230  8.179230
Te  1.635846 11.450922  8.179230
Te 11.450922  4.907538 11.450922
Te  1.635846  8.179230 11.450922
Te  1.635846  4.907538  1.635846
Te  4.907538 11.450922  4.907538
Te  8.179230  1.635846  4.907538
Te  4.907538  8.179230  8.179230
Te  8.179230 11.450922  8.179230
Te 11.450922  1.635846  8.179230
Te  4.907538  4.907538 11.450922
Te  8.179230  8.179230 11.450922
Te 11.450922 11.450922 11.450922
Te  1.635846  1.635846 11.450922
Te  8.179230  4.907538  1.635846
Te 11.450922  8.179230  1.635846
Te  1.635846 11.450922  1.635846
Te  4.907538  1.635846  8.179230
Te  4.907538 11.450922 11.450922
Te  8.179230  1.635846 11.450922
Te  4.907538  8.179230  1.635846
Te  8.179230 11.450922  1.635846
Te 11.450922  1.635846  1.635846
Te  4.907538  1.635846  1.635846
%ENDBLOCK POSITIONS_ABS

KPOINT_MP_GRID: 1 1 1
KPOINT_MP_OFFSET: 0.000000 0.000000 0.000000
