#=======================================================
# FHI-aims file: ./v_Cd_s0_0/Unperturbed/geometry.in
# Created using the Atomic Simulation Environment (ASE)
# Wed Feb  1 17:11:49 2023

# Additional information:
# Unperturbed
#=======================================================
lattice_vector 13.0867679999999993 0.0000000000000000 0.0000000000000008 
lattice_vector 0.0000000000000000 13.0867679999999993 0.0000000000000008 
lattice_vector 0.0000000000000000 0.0000000000000000 13.0867679999999993 
atom 6.5433839999999996 0.0000000000000000 0.0000000000000004 Cd
atom 9.8150759999999995 3.2716919999999998 0.0000000000000008 Cd
atom 9.8150759999999995 0.0000000000000000 3.2716919999999994 Cd
atom 3.2716919999999998 3.2716919999999998 0.0000000000000004 Cd
atom 6.5433839999999996 6.5433839999999996 0.0000000000000008 Cd
atom 9.8150759999999995 9.8150759999999995 0.0000000000000012 Cd
atom 3.2716919999999998 0.0000000000000000 3.2716919999999994 Cd
atom 6.5433839999999996 3.2716919999999998 3.2716919999999994 Cd
atom 9.8150759999999995 6.5433839999999996 3.2716920000000003 Cd
atom 6.5433839999999996 0.0000000000000000 6.5433839999999988 Cd
atom 9.8150759999999995 3.2716919999999998 6.5433839999999996 Cd
atom 9.8150759999999995 0.0000000000000000 9.8150759999999995 Cd
atom 0.0000000000000000 6.5433839999999996 0.0000000000000004 Cd
atom 3.2716919999999998 9.8150759999999995 0.0000000000000008 Cd
atom 0.0000000000000000 3.2716919999999998 3.2716919999999994 Cd
atom 3.2716919999999998 6.5433839999999996 3.2716919999999994 Cd
atom 6.5433839999999996 9.8150759999999995 3.2716920000000003 Cd
atom 0.0000000000000000 0.0000000000000000 6.5433839999999996 Cd
atom 3.2716919999999998 3.2716919999999998 6.5433839999999988 Cd
atom 6.5433839999999996 6.5433839999999996 6.5433839999999996 Cd
atom 9.8150759999999995 9.8150759999999995 6.5433839999999988 Cd
atom 3.2716919999999998 0.0000000000000000 9.8150759999999995 Cd
atom 6.5433839999999996 3.2716919999999998 9.8150759999999995 Cd
atom 9.8150759999999995 6.5433839999999996 9.8150760000000012 Cd
atom 0.0000000000000000 9.8150759999999995 3.2716919999999994 Cd
atom 0.0000000000000000 6.5433839999999996 6.5433839999999988 Cd
atom 3.2716919999999998 9.8150759999999995 6.5433839999999996 Cd
atom 0.0000000000000000 3.2716919999999998 9.8150759999999995 Cd
atom 3.2716919999999998 6.5433839999999996 9.8150759999999995 Cd
atom 6.5433839999999996 9.8150759999999995 9.8150760000000012 Cd
atom 0.0000000000000000 9.8150759999999995 9.8150759999999995 Cd
atom 11.4509219999999985 4.9075379999999988 4.9075380000000006 Te
atom 1.6358459999999999 8.1792299999999987 4.9075380000000006 Te
atom 1.6358459999999999 4.9075379999999988 8.1792299999999987 Te
atom 4.9075379999999997 4.9075379999999988 4.9075380000000006 Te
atom 8.1792300000000004 8.1792299999999987 4.9075380000000006 Te
atom 11.4509219999999985 11.4509219999999985 4.9075380000000015 Te
atom 1.6358459999999999 1.6358459999999999 4.9075379999999997 Te
atom 8.1792300000000004 4.9075379999999988 8.1792299999999987 Te
atom 11.4509219999999985 8.1792299999999987 8.1792300000000004 Te
atom 1.6358459999999999 11.4509219999999985 8.1792299999999987 Te
atom 11.4509219999999985 4.9075379999999988 11.4509220000000003 Te
atom 1.6358459999999999 8.1792299999999987 11.4509220000000003 Te
atom 1.6358459999999999 4.9075379999999988 1.6358460000000004 Te
atom 4.9075379999999997 11.4509219999999985 4.9075380000000006 Te
atom 8.1792300000000004 1.6358459999999999 4.9075380000000006 Te
atom 4.9075379999999997 8.1792299999999987 8.1792299999999987 Te
atom 8.1792300000000004 11.4509219999999985 8.1792300000000004 Te
atom 11.4509219999999985 1.6358459999999999 8.1792299999999987 Te
atom 4.9075379999999997 4.9075379999999988 11.4509219999999985 Te
atom 8.1792300000000004 8.1792299999999987 11.4509220000000003 Te
atom 11.4509219999999985 11.4509219999999985 11.4509220000000020 Te
atom 1.6358459999999999 1.6358459999999999 11.4509220000000003 Te
atom 8.1792300000000004 4.9075379999999988 1.6358460000000008 Te
atom 11.4509219999999985 8.1792299999999987 1.6358460000000010 Te
atom 1.6358459999999999 11.4509219999999985 1.6358460000000008 Te
atom 4.9075379999999997 1.6358459999999999 8.1792299999999987 Te
atom 4.9075379999999997 11.4509219999999985 11.4509220000000003 Te
atom 8.1792300000000004 1.6358459999999999 11.4509220000000003 Te
atom 4.9075379999999997 8.1792299999999987 1.6358460000000008 Te
atom 8.1792300000000004 11.4509219999999985 1.6358460000000010 Te
atom 11.4509219999999985 1.6358459999999999 1.6358460000000008 Te
atom 4.9075379999999997 1.6358459999999999 1.6358460000000004 Te
