30.0%__num_neighbours=1__Vac_O_mult32   
   1.0000000000000000     
     0.0000000000000000   10.7468629999999994    0.0000000000000000
   -10.7468629999999994    0.0000000000000000    0.0000000000000000
     0.0000000000000000    0.0000000000000000    9.7925889999999995
   Sr   Cu   O 
    16    32    31
Direct
 -0.0022116971828439  0.2316218099751145  0.2454491767621373
  0.5013609166660866  0.2444048556906130  0.2463183792510658
 -0.0020112280812928  0.7581046396605731  0.2456589413491701
  0.5016316027697073  0.7455640455192452  0.2462039976080454
  0.2509815645959165 -0.0050967838371948  0.7469616512136602
  0.7489474455710006 -0.0051193310443487  0.7481547506011080
  0.2530933505875441  0.4949158055044187  0.7460335811995129
  0.7488306638825019  0.4949340189028643  0.7498183311315583
 -0.0016329392663079  0.4951329416052181  0.5017575673003223
  0.5016476578858630  0.4950850324485312  0.4943023099888960
 -0.0000012861062511 -0.0047857174357677  0.5003646390427124
  0.5001553034411734 -0.0048894182122594  0.4977575044509904
  0.2499783292083763  0.2472731840006044 -0.0044999234257368
  0.7500046819849789  0.2481723294128060 -0.0027026107978200
  0.2501010238112356  0.7424104870497676 -0.0041643031148459
  0.7501142757351735  0.7413787658978183 -0.0027403909567542
  0.2400743267422305  0.3735033395738822  0.3633776776725948
  0.7541390855140570  0.3703659202282517  0.3722481287864862
  0.2495704552214557  0.8688575876246013  0.3729458838679213
  0.7498359488457236  0.8699451328786525  0.3740715624393420
  0.5000491113417952  0.1202794966096455  0.8720449760363801
 -0.0003451444627487  0.1199851274150997  0.8730171911876846
  0.5000819338629205  0.6188205380148352  0.8716459652519158
  0.0018357280504426  0.6197221238157781  0.8705837649577486
  0.3867859008532789  0.4949052829684087  0.1122289046053995
  0.9308188007984061  0.4947029351114531  0.0783212036406519
  0.3753104976729217  0.9950331877788098  0.1227795519597366
  0.8757387069907170 -0.0052302818714586  0.1172209036120498
  0.6256711768565743  0.2459891117306181  0.6215185922150912
  0.1253287376282163  0.2456974400902386  0.6200775756766813
  0.6260521519941171  0.7440162407927192  0.6210083268798769
  0.1258357272270895  0.7443319789603258  0.6198148643489717
  0.2402269216016946  0.6162444229431036  0.3634900669907107
  0.7543756243863106  0.6202566269307640  0.3722402300706676
  0.2495115050640489  0.1214157691448471  0.3726520362035711
  0.7497166774286688  0.1208891487945166  0.3743174637870590
  0.5000464865125834  0.3702913292533853  0.8713763267938390
  0.0016610165883895  0.3697834636888419  0.8704387469318564
  0.5000499730355298  0.8690174377480349  0.8720041302172279
 -0.0002491820003319  0.8697185704318859  0.8732115955800410
  0.1473817967312876  0.4946067897145825  0.1594394234913323
  0.6420501445510863  0.4948727603754550  0.1302654108796220
  0.1261479150955472 -0.0051369967844041  0.1187002965072390
  0.6251020147990413 -0.0050846211310920  0.1226076176702085
  0.3756047144448524  0.2456567259148791  0.6214965652581367
  0.8753612502711310  0.2456366350763457  0.6204540815241162
  0.3760606942983609  0.7443357215977128  0.6216280639796428
  0.8756583264109236  0.7442451363178805  0.6204311062844284
  0.5071522976557544  0.4954314839181648  0.2443895438230263
  0.0004825837571646 -0.0052652930865660  0.2447793928809203
  0.5001419973665442  0.9950809669292010  0.2481819740712091
  0.2497933421219099  0.2461087405755448  0.7460881577615621
  0.7511113774913573  0.2461608269843400  0.7470980084788161
  0.2500933972376668  0.7434287294236268  0.7461374856601296
  0.7512595371001931  0.7434245647978580  0.7468966808862525
 -0.0003562291256766  0.2459313991857409 -0.0025396838682019
  0.4998605724378209  0.2458861462973612 -0.0027286869427923
 -0.0001048553663152  0.7436226778559575 -0.0024501536188527
  0.4998316887462557  0.7434762526860987 -0.0027318716744443
  0.2505474518881421 -0.0047414693064813  0.4968239163141480
  0.7505238928106739 -0.0046773222085457  0.4987768039516594
  0.2442841706990138  0.4948060151411565  0.4928685002278663
  0.7556714458848622  0.4952786853605520  0.4978311155570687
  0.0004380796385555  0.2470136671849228  0.4941333870430592
  0.5002270617485242  0.2469703949955140  0.4956742085093597
  0.0007360638550440  0.7430361993028934  0.4941775166905765
  0.5003947202896809  0.7430281736029423  0.4954391570037319
  0.2519721436372693 -0.0048370794859099 -0.0043482093680751
  0.7487705260893787 -0.0051519120727964  0.9959432786272256
  0.2518852505907992  0.4947554959456487 -0.0003307587314272
  0.7662498666133959  0.4947920152564076  0.0034059093546486
  0.0035916917804088  0.4948267566051817  0.7442433431692353
  0.5013721570849293  0.4946692198733476  0.7447018000319913
  0.0005225288057733 -0.0052163611061307  0.7475963252236834
  0.4999299013654832 -0.0053479465146527  0.7470793197452884
  0.2451485640959351  0.2447162483215380  0.2446834066745003
  0.7519187363033905  0.2450824590917407  0.2475400162138697
  0.2455063528062643  0.7452890689537774  0.2451388649257900
  0.7523459947306482  0.7454834486149700  0.2475174144659384

  0.00000000E+00  0.00000000E+00  0.00000000E+00
  0.00000000E+00  0.00000000E+00  0.00000000E+00
  0.00000000E+00  0.00000000E+00  0.00000000E+00
  0.00000000E+00  0.00000000E+00  0.00000000E+00
  0.00000000E+00  0.00000000E+00  0.00000000E+00
  0.00000000E+00  0.00000000E+00  0.00000000E+00
  0.00000000E+00  0.00000000E+00  0.00000000E+00
  0.00000000E+00  0.00000000E+00  0.00000000E+00
  0.00000000E+00  0.00000000E+00  0.00000000E+00
  0.00000000E+00  0.00000000E+00  0.00000000E+00
  0.00000000E+00  0.00000000E+00  0.00000000E+00
  0.00000000E+00  0.00000000E+00  0.00000000E+00
  0.00000000E+00  0.00000000E+00  0.00000000E+00
  0.00000000E+00  0.00000000E+00  0.00000000E+00
  0.00000000E+00  0.00000000E+00  0.00000000E+00
  0.00000000E+00  0.00000000E+00  0.00000000E+00
  0.00000000E+00  0.00000000E+00  0.00000000E+00
  0.00000000E+00  0.00000000E+00  0.00000000E+00
  0.00000000E+00  0.00000000E+00  0.00000000E+00
  0.00000000E+00  0.00000000E+00  0.00000000E+00
  0.00000000E+00  0.00000000E+00  0.00000000E+00
  0.00000000E+00  0.00000000E+00  0.00000000E+00
  0.00000000E+00  0.00000000E+00  0.00000000E+00
  0.00000000E+00  0.00000000E+00  0.00000000E+00
  0.00000000E+00  0.00000000E+00  0.00000000E+00
  0.00000000E+00  0.00000000E+00  0.00000000E+00
  0.00000000E+00  0.00000000E+00  0.00000000E+00
  0.00000000E+00  0.00000000E+00  0.00000000E+00
  0.00000000E+00  0.00000000E+00  0.00000000E+00
  0.00000000E+00  0.00000000E+00  0.00000000E+00
  0.00000000E+00  0.00000000E+00  0.00000000E+00
  0.00000000E+00  0.00000000E+00  0.00000000E+00
  0.00000000E+00  0.00000000E+00  0.00000000E+00
  0.00000000E+00  0.00000000E+00  0.00000000E+00
  0.00000000E+00  0.00000000E+00  0.00000000E+00
  0.00000000E+00  0.00000000E+00  0.00000000E+00
  0.00000000E+00  0.00000000E+00  0.00000000E+00
  0.00000000E+00  0.00000000E+00  0.00000000E+00
  0.00000000E+00  0.00000000E+00  0.00000000E+00
  0.00000000E+00  0.00000000E+00  0.00000000E+00
  0.00000000E+00  0.00000000E+00  0.00000000E+00
  0.00000000E+00  0.00000000E+00  0.00000000E+00
  0.00000000E+00  0.00000000E+00  0.00000000E+00
  0.00000000E+00  0.00000000E+00  0.00000000E+00
  0.00000000E+00  0.00000000E+00  0.00000000E+00
  0.00000000E+00  0.00000000E+00  0.00000000E+00
  0.00000000E+00  0.00000000E+00  0.00000000E+00
  0.00000000E+00  0.00000000E+00  0.00000000E+00
  0.00000000E+00  0.00000000E+00  0.00000000E+00
  0.00000000E+00  0.00000000E+00  0.00000000E+00
  0.00000000E+00  0.00000000E+00  0.00000000E+00
  0.00000000E+00  0.00000000E+00  0.00000000E+00
  0.00000000E+00  0.00000000E+00  0.00000000E+00
  0.00000000E+00  0.00000000E+00  0.00000000E+00
  0.00000000E+00  0.00000000E+00  0.00000000E+00
  0.00000000E+00  0.00000000E+00  0.00000000E+00
  0.00000000E+00  0.00000000E+00  0.00000000E+00
  0.00000000E+00  0.00000000E+00  0.00000000E+00
  0.00000000E+00  0.00000000E+00  0.00000000E+00
  0.00000000E+00  0.00000000E+00  0.00000000E+00
  0.00000000E+00  0.00000000E+00  0.00000000E+00
  0.00000000E+00  0.00000000E+00  0.00000000E+00
  0.00000000E+00  0.00000000E+00  0.00000000E+00
  0.00000000E+00  0.00000000E+00  0.00000000E+00
  0.00000000E+00  0.00000000E+00  0.00000000E+00
  0.00000000E+00  0.00000000E+00  0.00000000E+00
  0.00000000E+00  0.00000000E+00  0.00000000E+00
  0.00000000E+00  0.00000000E+00  0.00000000E+00
  0.00000000E+00  0.00000000E+00  0.00000000E+00
  0.00000000E+00  0.00000000E+00  0.00000000E+00
  0.00000000E+00  0.00000000E+00  0.00000000E+00
  0.00000000E+00  0.00000000E+00  0.00000000E+00
  0.00000000E+00  0.00000000E+00  0.00000000E+00
  0.00000000E+00  0.00000000E+00  0.00000000E+00
  0.00000000E+00  0.00000000E+00  0.00000000E+00
  0.00000000E+00  0.00000000E+00  0.00000000E+00
  0.00000000E+00  0.00000000E+00  0.00000000E+00
  0.00000000E+00  0.00000000E+00  0.00000000E+00
  0.00000000E+00  0.00000000E+00  0.00000000E+00
