#######################################################
#CASTEP cell file: /Users/ireaml/Library/CloudStorage/OneDrive-ImperialCollegeLondon/07_Python_Packages/ShakeNBreak/docs/v_Cd_s0_0/Bond_Distortion_30.0%/castep.cell
#Created using the Atomic Simulation Environment (ASE)#
#######################################################

%BLOCK LATTICE_CART
13.086768  0.000000  0.000000
 0.000000 13.086768  0.000000
 0.000000  0.000000 13.086768
%ENDBLOCK LATTICE_CART

%BLOCK POSITIONS_ABS
Cd  6.274235 -0.279149  0.493849
Cd 10.620167  3.055247  0.072976
Cd  9.571897 -0.432123  3.431637
Cd  3.554142  3.230587  0.096578
Cd  6.015502  6.827872 -0.129375
Cd  9.781257  9.601386  0.234867
Cd  3.153851 -0.271500  3.601795
Cd  6.770825  3.174396  3.185520
Cd  9.592287  6.447144  3.337405
Cd  6.315045 -0.330845  6.372536
Cd  9.568891  3.670433  6.615635
Cd 10.061565 -0.010887  9.457597
Cd  0.020573  6.590079  0.262686
Cd  3.352017  9.662559  0.124112
Cd -0.061847  3.205365  3.188265
Cd  3.355988  6.573764  3.376402
Cd  7.124643  9.634420  2.943713
Cd  0.361427  0.009580  6.429279
Cd  3.030831  3.569617  6.745739
Cd  6.674409  6.116392  6.825994
Cd  9.454468 10.094367  6.497284
Cd  3.402187  0.036613  9.196483
Cd  7.305068  3.263842  9.733830
Cd  9.307236  6.529146  9.737827
Cd  0.102064  9.768738  3.377821
Cd  0.163443  6.271392  6.446765
Cd  3.036639 10.042949  6.290107
Cd  0.085656  2.719069  9.900085
Cd  4.208196  6.129484  9.718697
Cd  6.892255  9.959657  9.518623
Cd  0.543659  9.483350  9.505117
Te 11.617721  4.868021  4.631130
Te  1.491526  8.249306  5.111666
Te  1.481809  5.393492  8.394042
Te  4.638015  4.411844  4.645768
Te  8.262480  7.789219  4.934652
Te 11.169851 11.195167  5.014829
Te  1.778364  1.406613  4.863160
Te  8.198485  4.892671  8.349497
Te 11.426265  7.517598  8.220444
Te  1.832979 11.431625  8.243580
Te 11.835464  4.741977 11.397935
Te  1.883784  8.466633 11.112496
Te  1.592636  5.090948  1.617828
Te  4.603177 11.192316  4.650806
Te  8.307438  2.008406  4.996734
Te  4.715586  8.016942  7.565948
Te  8.419190 11.311995  8.810105
Te 11.304156  1.754943  8.118777
Te  5.043252  4.849679 11.378153
Te  8.171876  7.875213 11.323868
Te 10.960144 10.960144 10.960144
Te  2.126624  2.126624 10.960144
Te  8.005426  4.804362  2.083620
Te 11.917729  8.292593  1.957384
Te  1.671624 11.501125  2.181602
Te  5.204519  1.189921  8.015295
Te  4.780033 11.217647 11.656038
Te  8.012722  1.722736 11.404478
Te  4.484186  7.917690  1.631828
Te  8.232656 11.946904  1.591357
Te 11.428625  1.545334  1.773404
Te  4.771657  1.368656  1.778579
%ENDBLOCK POSITIONS_ABS

KPOINT_MP_GRID: 1 1 1
KPOINT_MP_OFFSET: 0.000000 0.000000 0.000000
