#=======================================================
# FHI-aims file: ./v_Cd_s0_0/Bond_Distortion_30.0%/geometry.in
# Created using the Atomic Simulation Environment (ASE)
# Wed Feb  1 17:11:49 2023

# Additional information:
# Bond_Distortion_30.0%
#=======================================================
lattice_vector 13.0867679999999993 0.0000000000000000 0.0000000000000008 
lattice_vector 0.0000000000000000 13.0867679999999993 0.0000000000000008 
lattice_vector 0.0000000000000000 0.0000000000000000 13.0867679999999993 
atom 6.2742350814252887 -0.2791485754936259 0.4938490534074765 Cd
atom 10.6201674638636927 3.0552470302585082 0.0729756683152547 Cd
atom 9.5718970486358650 -0.4321233136803309 3.4316368439869933 Cd
atom 3.5541422898751680 3.2305868235657500 0.0965777081453956 Cd
atom 6.0155021372417350 6.8278715954345586 -0.1293749099627688 Cd
atom 9.7812574119400750 9.6013856551888690 0.2348670618050910 Cd
atom 3.1538510724165487 -0.2714999101883304 3.6017948717467418 Cd
atom 6.7708247357703124 3.1743959311486463 3.1855201439402849 Cd
atom 9.5922867551260662 6.4471441408824299 3.3374054118293355 Cd
atom 6.3150453289889077 -0.3308454454591833 6.3725357248338534 Cd
atom 9.5688910020930749 3.6704327184742853 6.6156346048450789 Cd
atom 10.0615651663076591 -0.0108866972557265 9.4575968195318438 Cd
atom 0.0205731697123419 6.5900786143629073 0.2626864924779924 Cd
atom 3.3520169822613060 9.6625587857391153 0.1241117067157907 Cd
atom -0.0618473080099194 3.2053645606249668 3.1882654502349346 Cd
atom 3.3559877202125441 6.5737640359748450 3.3764016211726657 Cd
atom 7.1246432156682742 9.6344197084634544 2.9437130408328347 Cd
atom 0.3614273668028669 0.0095797716470478 6.4292787764929846 Cd
atom 3.0308309868236956 3.5696170496125030 6.7457394601368925 Cd
atom 6.6744092645178377 6.1163921042430740 6.8259938731501837 Cd
atom 9.4544675824871423 10.0943666023730394 6.4972838873055077 Cd
atom 3.4021871674913604 0.0366125391550833 9.1964831279102004 Cd
atom 7.3050681154338895 3.2638418456028675 9.7338302159631613 Cd
atom 9.3072357885219912 6.5291458568417733 9.7378269950364142 Cd
atom 0.1020643440881764 9.7687376124867917 3.3778207830348110 Cd
atom 0.1634434859422954 6.2713918711599561 6.4467647304737676 Cd
atom 3.0366389000960208 10.0429487266130995 6.2901073643923135 Cd
atom 0.0856558286593765 2.7190686140653963 9.9000845469531384 Cd
atom 4.2081963143463312 6.1294839902286542 9.7186965913181123 Cd
atom 6.8922547919117942 9.9596567974431807 9.5186234437625359 Cd
atom 0.5436592512906098 9.4833497461639773 9.5051168200749814 Cd
atom 11.6177213781043243 4.8680207570657990 4.6311299416615110 Te
atom 1.4915262905224524 8.2493055565018505 5.1116664570197070 Te
atom 1.4818091591896705 5.3934918699144756 8.3940421353097516 Te
atom 4.6380152899267220 4.4118440826766383 4.6457679638053486 Te
atom 8.2624796267141889 7.7892187217161899 4.9346522003918043 Te
atom 11.1698513924126956 11.1951672346143880 5.0148289595237765 Te
atom 1.7783638241556974 1.4066125708899682 4.8631598253465791 Te
atom 8.1984853568306519 4.8926714296700187 8.3494974575435368 Te
atom 11.4262653392648623 7.5175975800421293 8.2204435007799610 Te
atom 1.8329785848552533 11.4316247653616916 8.2435795783924863 Te
atom 11.8354638959678198 4.7419766567082391 11.3979349324495569 Te
atom 1.8837840651434576 8.4666331401187520 11.1124961082752520 Te
atom 1.5926355118694464 5.0909483053698503 1.6178281126948946 Te
atom 4.6031774610534324 11.1923158596981107 4.6508056986071837 Te
atom 8.3074378970305620 2.0084058110109391 4.9967340344764812 Te
atom 4.7155864836145236 8.0169424610538531 7.5659475708460135 Te
atom 8.4191900371054178 11.3119952512277848 8.8101049105627656 Te
atom 11.3041559520861217 1.7549425085261441 8.1187771816054273 Te
atom 5.0432517919709641 4.8496791680218561 11.3781528101667799 Te
atom 8.1718757299047997 7.8752132120110350 11.3238683392529911 Te
atom 10.9601444714615468 10.9601444714615468 10.9601444714615504 Te
atom 2.1266235285384525 2.1266235285384525 10.9601444714615486 Te
atom 8.0054264257856058 4.8043622481461732 2.0836195260620265 Te
atom 11.9177287681711981 8.2925929557331681 1.9573837468358728 Te
atom 1.6716236393208623 11.5011245941338718 2.1816019857186748 Te
atom 5.2045189566771750 1.1899211872609374 8.0152945336070189 Te
atom 4.7800328503493859 11.2176473132151830 11.6560381943344460 Te
atom 8.0127219202568813 1.7227357557679066 11.4044776851938359 Te
atom 4.4841857716713385 7.9176902848174358 1.6318281233234657 Te
atom 8.2326560542111693 11.9469042443110887 1.5913568976332566 Te
atom 11.4286250478646902 1.5453338248732744 1.7734043186926352 Te
atom 4.7716567555387313 1.3686562441773906 1.7785787346593953 Te
