-40.0%_Bond__vac_1_Cd[0. 0. 0.]_-dNELECT
   1.0000000000000000     
    13.0867679999999993    0.0000000000000000    0.0000000000000000
     0.0000000000000000   13.0867679999999993    0.0000000000000000
     0.0000000000000000    0.0000000000000000   13.0867679999999993
   Cd   Te
    31    32
Direct
  0.0133231377676103  0.0041910770523595  0.4960567384930913
  0.0133963468768223  0.5043866170813759 -0.0039880998973810
  0.0024027489595096  0.5041366947531886  0.4957753007205554
  0.5140171955822432  0.0042877623012377  0.9959714191163972
  0.4946734276564742  0.0041240346986463  0.4957144378381508
  0.4947664410649358  0.5041785708389226  0.9958476372849752
  0.5033175479929018  0.5042121161019611  0.4959257209806109
  0.9895837527712756  0.2498969161892836  0.2417361116443838
  0.9721417364136219  0.2791337431697568  0.7209303986078299
  0.9722076074119987  0.7293306772222604  0.2710573310828661
  0.9892203526283322  0.7583491167737635  0.7499169878221903
  0.5108416166741568  0.2616421339004658  0.2532541123361865
  0.4996339181064315  0.2534624912463320  0.7465645764467576
  0.4996463000101724  0.7546886996822401  0.2453114018137186
  0.5107311250263193  0.7466336754032475  0.7384849099694494
  0.2570409634152694  0.0123965790970422  0.2330688101742800
  0.2575646696852040 -0.0040928145028269  0.7585856707608550
  0.2513513960099061  0.5011466833242573  0.2411630591950151
  0.2510617750695193  0.5072043882093665  0.7505164647531164
  0.7540049035373781  0.0135588811863372  0.2391913541395220
  0.7537024864727566 -0.0050371548015023  0.7526649211368575
  0.7515527839760480  0.5048189376292784  0.2444494536026358
  0.7512962368113268  0.5034977151655169  0.7473681052157015
  0.2574105166395093  0.2414638006609403  0.0041600298782035
  0.2511982974660977  0.2498776646978266  0.4926585571036742
  0.2569892358602219  0.7671171921179415  0.9874659747222281
  0.2511623935942886  0.7587755965315243  0.4991216385284170
  0.7539384701987899  0.2477679466173031  0.0051334025055774
  0.7510933591694966  0.2525016180320640  0.4967516417842733
  0.7537805062460693  0.7610626395972339 -0.0131612622261192
  0.7512690183686541  0.7559376947885368  0.4952550804094001
  0.1275599909210291  0.1297229578415949  0.3641078718463411
  0.1357243323487454  0.0786121742559164  0.9213595574979747
  0.1296341488946083  0.6289719540553825  0.3710302710892313
  0.1274200123586749  0.6361345217940568  0.8702479491555938
  0.6266011614674243  0.1272842844082043  0.3746955928776893
  0.6306416187795103  0.1323945762116943  0.8679525105810464
  0.6264366499644212  0.6302901165555654  0.3697673104179355
  0.6266841018835900  0.6252860555291250  0.8728531695832373
  0.1275680749512622  0.3722900623527356  0.1213317908159783
  0.1296049226617428  0.3795761250114282  0.6205016528169455
  0.1353075679065341  0.9302267016594343  0.0698270453543330
  0.1275692530153374  0.8786934090753501  0.6278921543980905
  0.6266352915153104  0.3832571859980676  0.1189537164093679
  0.6263024322495916  0.3781296597137662  0.6220307760623608
  0.6306348555765930  0.8762860708623770  0.1240409391311773
  0.6263718603999733  0.8811816614301413  0.6170267038937892
  0.3964296888830331  0.1329340686065564  0.1248791335241737
  0.3703190077020408  0.1272074320133517  0.6257580894249511
  0.3702951623004486  0.6343984933494407  0.1186076000776143
  0.3757157142124498  0.6275798357515329  0.6194574183126612
  0.8841860048435713  0.1206897188411890  0.1121457852725153
  0.8762563873314299  0.1229113048301973  0.6187548637654576
  0.8765285285461818  0.6272526837797018  0.1147695442567026
  0.8752200823372263  0.6279303575379831  0.6195890873619851
  0.3758201916219364  0.3808069253410934  0.3723000503962244
  0.3703366347683488  0.3741457591369753  0.8729143091725945
  0.3701841873582778  0.8811492434176184  0.3657802808777678
  0.3966882122871458  0.8753209662982830  0.8671801181294647
  0.8752921960421729  0.3801935551259237  0.3722210739434444
  0.8764893720230801  0.3815277015077594  0.8771221778968070
  0.8765191153983578  0.8855345741946488  0.3731137455161760
  0.8840479719866292  0.8878721687470247  0.8795358241969687

  0.00000000E+00  0.00000000E+00  0.00000000E+00
  0.00000000E+00  0.00000000E+00  0.00000000E+00
  0.00000000E+00  0.00000000E+00  0.00000000E+00
  0.00000000E+00  0.00000000E+00  0.00000000E+00
  0.00000000E+00  0.00000000E+00  0.00000000E+00
  0.00000000E+00  0.00000000E+00  0.00000000E+00
  0.00000000E+00  0.00000000E+00  0.00000000E+00
  0.00000000E+00  0.00000000E+00  0.00000000E+00
  0.00000000E+00  0.00000000E+00  0.00000000E+00
  0.00000000E+00  0.00000000E+00  0.00000000E+00
  0.00000000E+00  0.00000000E+00  0.00000000E+00
  0.00000000E+00  0.00000000E+00  0.00000000E+00
  0.00000000E+00  0.00000000E+00  0.00000000E+00
  0.00000000E+00  0.00000000E+00  0.00000000E+00
  0.00000000E+00  0.00000000E+00  0.00000000E+00
  0.00000000E+00  0.00000000E+00  0.00000000E+00
  0.00000000E+00  0.00000000E+00  0.00000000E+00
  0.00000000E+00  0.00000000E+00  0.00000000E+00
  0.00000000E+00  0.00000000E+00  0.00000000E+00
  0.00000000E+00  0.00000000E+00  0.00000000E+00
  0.00000000E+00  0.00000000E+00  0.00000000E+00
  0.00000000E+00  0.00000000E+00  0.00000000E+00
  0.00000000E+00  0.00000000E+00  0.00000000E+00
  0.00000000E+00  0.00000000E+00  0.00000000E+00
  0.00000000E+00  0.00000000E+00  0.00000000E+00
  0.00000000E+00  0.00000000E+00  0.00000000E+00
  0.00000000E+00  0.00000000E+00  0.00000000E+00
  0.00000000E+00  0.00000000E+00  0.00000000E+00
  0.00000000E+00  0.00000000E+00  0.00000000E+00
  0.00000000E+00  0.00000000E+00  0.00000000E+00
  0.00000000E+00  0.00000000E+00  0.00000000E+00
  0.00000000E+00  0.00000000E+00  0.00000000E+00
  0.00000000E+00  0.00000000E+00  0.00000000E+00
  0.00000000E+00  0.00000000E+00  0.00000000E+00
  0.00000000E+00  0.00000000E+00  0.00000000E+00
  0.00000000E+00  0.00000000E+00  0.00000000E+00
  0.00000000E+00  0.00000000E+00  0.00000000E+00
  0.00000000E+00  0.00000000E+00  0.00000000E+00
  0.00000000E+00  0.00000000E+00  0.00000000E+00
  0.00000000E+00  0.00000000E+00  0.00000000E+00
  0.00000000E+00  0.00000000E+00  0.00000000E+00
  0.00000000E+00  0.00000000E+00  0.00000000E+00
  0.00000000E+00  0.00000000E+00  0.00000000E+00
  0.00000000E+00  0.00000000E+00  0.00000000E+00
  0.00000000E+00  0.00000000E+00  0.00000000E+00
  0.00000000E+00  0.00000000E+00  0.00000000E+00
  0.00000000E+00  0.00000000E+00  0.00000000E+00
  0.00000000E+00  0.00000000E+00  0.00000000E+00
  0.00000000E+00  0.00000000E+00  0.00000000E+00
  0.00000000E+00  0.00000000E+00  0.00000000E+00
  0.00000000E+00  0.00000000E+00  0.00000000E+00
  0.00000000E+00  0.00000000E+00  0.00000000E+00
  0.00000000E+00  0.00000000E+00  0.00000000E+00
  0.00000000E+00  0.00000000E+00  0.00000000E+00
  0.00000000E+00  0.00000000E+00  0.00000000E+00
  0.00000000E+00  0.00000000E+00  0.00000000E+00
  0.00000000E+00  0.00000000E+00  0.00000000E+00
  0.00000000E+00  0.00000000E+00  0.00000000E+00
  0.00000000E+00  0.00000000E+00  0.00000000E+00
  0.00000000E+00  0.00000000E+00  0.00000000E+00
  0.00000000E+00  0.00000000E+00  0.00000000E+00
  0.00000000E+00  0.00000000E+00  0.00000000E+00
  0.00000000E+00  0.00000000E+00  0.00000000E+00
