-0.0%_BDM_Distortion_vac_1_Cd[0. 0. 0.]_
   1.00000000000000     
    13.0867679999999993    0.0000000000000000    0.0000000000000000
     0.0000000000000000   13.0867679999999993    0.0000000000000000
     0.0000000000000000    0.0000000000000000   13.0867679999999993
   Cd   Te
    31    32
Direct
  0.0022058212459418  0.9978717437405898  0.4984818587247915
  0.0020083814413620  0.4975504387608266  0.9987441323458081
  0.0016432821519229  0.4975737600517393  0.4991456647970763
  0.5022848720091494  0.9977349830853057 -0.0011620058161289
  0.5014986310583890  0.9970186332345773  0.4995519299789810
  0.5015476334597010  0.4978508498479730 -0.0014081133972922
  0.5019275717699171  0.4976861845865181  0.4990276434691209
  0.9931867642450894  0.2432215723005088  0.2439844708506349
  0.0065868685683372  0.2431914204275190  0.7538276239356594
  0.0086022384714294  0.7534924248181629  0.2444526442073635
  0.9955654378622583  0.7532001255552412  0.7543651475936486
  0.5002180110773244  0.2466292182271467  0.2480400719380874
  0.5014319009178309  0.2463816406285896  0.7508978284764682
  0.5020133418243486  0.7492069045649378  0.2475276044367405
  0.5011924873291727  0.7493771698061819  0.7510190185962189
  0.2452226835350032  0.9911001008727923  0.2442978608499750
  0.2451994131975545  0.0033128031358628  0.7541340134353488
  0.2512461070366834  0.4977518544180905  0.2475823155533887
  0.2502721331500050  0.4971479269615842  0.7512910369548779
  0.7576366394422273  0.0059884304805323  0.2442554664886301
  0.7574698277411304  0.9935823293072003  0.7553032110835606
  0.7523555252858650  0.4986287562844984  0.2481590657956066
  0.7527894628225638  0.4981310062108701  0.7498945909827678
  0.2446385973190005  0.2416156484613764 -0.0046918335174615
  0.2503114129471382  0.2462900858794783  0.4986790642602626
  0.2452121948890977  0.7537707060665988  0.0052389856822864
  0.2512404827201561  0.7471536495266363  0.5002743247832342
  0.7571876322414346  0.2439142630250495  0.0061810738299790
  0.7515220369943622  0.2467047446239833  0.5001784058773961
  0.7570752718341565  0.7532285022948181 -0.0040273840718454
  0.7528510532936195  0.7499350398694450  0.4983504403844063
  0.1258326585218126  0.1233247149812830  0.3716782409138549
  0.1162331326704726  0.1141125134454343  0.8819149963232311
  0.1264627509882328  0.6226220048617807  0.3736059607481694
  0.1263585415164161  0.6242638750049470  0.8740853693722427
  0.6260164991693725  0.1226667144581237  0.3739620377302563
  0.6284793324366580  0.1234369338880673  0.8750218380765130
  0.6263857872336677  0.6237023739221104  0.3739154188001095
  0.6276668445970598  0.6241278211797944  0.8747316732267831
  0.1257903805737798  0.3713258669899563  0.1247105437571827
  0.1261703386494283  0.3722340574638469  0.6243985057172350
  0.1162469424317687  0.8820607360183207  0.1144340856136067
  0.1262749923031249  0.8723262026306111  0.6249180822286236
  0.6260499024936416  0.3727427978929387  0.1240012198243973
  0.6260256769207866  0.3727156564138620  0.6249770790524261
  0.6286801922924572  0.8742353965880423  0.1247140883327425
  0.6276633712232931  0.8737036207068216  0.6255561092771934
  0.3746939049535387  0.1213573067096853  0.1238827743079538
  0.3758677067543204  0.1220898707878076  0.6247555204169152
  0.3760846499913555  0.6239308107574802  0.1227955479405723
  0.3767480272518969  0.6218804988993449  0.6254567022722362
  0.8859435759068104  0.1141473043813719  0.1137674742479314
  0.8763338987244493  0.1223713877216732  0.6249126027421655
  0.8773906525328532  0.6240526712875926  0.1241401936605823
  0.8768024786393933  0.6239451038011997  0.6241228908090263
  0.3760477984048752  0.3727298352880671  0.3739761587925545
  0.3751177132762655  0.3710139474843966  0.8755652120471299
  0.3759354527424897  0.8725552405452820  0.3739211630354155
  0.3748216206693519  0.8737757912834936  0.8744978711157591
  0.8756250012260143  0.3725977835421060  0.3743723755814258
  0.8761904250254724  0.3719978053594287  0.8739687124159142
  0.8765903529688220  0.8738652696883198  0.3720593486377636
  0.8853766790279136  0.8811521689621875  0.8832680444724768
 
  0.00000000E+00  0.00000000E+00  0.00000000E+00
  0.00000000E+00  0.00000000E+00  0.00000000E+00
  0.00000000E+00  0.00000000E+00  0.00000000E+00
  0.00000000E+00  0.00000000E+00  0.00000000E+00
  0.00000000E+00  0.00000000E+00  0.00000000E+00
  0.00000000E+00  0.00000000E+00  0.00000000E+00
  0.00000000E+00  0.00000000E+00  0.00000000E+00
  0.00000000E+00  0.00000000E+00  0.00000000E+00
  0.00000000E+00  0.00000000E+00  0.00000000E+00
  0.00000000E+00  0.00000000E+00  0.00000000E+00
  0.00000000E+00  0.00000000E+00  0.00000000E+00
  0.00000000E+00  0.00000000E+00  0.00000000E+00
  0.00000000E+00  0.00000000E+00  0.00000000E+00
  0.00000000E+00  0.00000000E+00  0.00000000E+00
  0.00000000E+00  0.00000000E+00  0.00000000E+00
  0.00000000E+00  0.00000000E+00  0.00000000E+00
  0.00000000E+00  0.00000000E+00  0.00000000E+00
  0.00000000E+00  0.00000000E+00  0.00000000E+00
  0.00000000E+00  0.00000000E+00  0.00000000E+00
  0.00000000E+00  0.00000000E+00  0.00000000E+00
  0.00000000E+00  0.00000000E+00  0.00000000E+00
  0.00000000E+00  0.00000000E+00  0.00000000E+00
  0.00000000E+00  0.00000000E+00  0.00000000E+00
  0.00000000E+00  0.00000000E+00  0.00000000E+00
  0.00000000E+00  0.00000000E+00  0.00000000E+00
  0.00000000E+00  0.00000000E+00  0.00000000E+00
  0.00000000E+00  0.00000000E+00  0.00000000E+00
  0.00000000E+00  0.00000000E+00  0.00000000E+00
  0.00000000E+00  0.00000000E+00  0.00000000E+00
  0.00000000E+00  0.00000000E+00  0.00000000E+00
  0.00000000E+00  0.00000000E+00  0.00000000E+00
  0.00000000E+00  0.00000000E+00  0.00000000E+00
  0.00000000E+00  0.00000000E+00  0.00000000E+00
  0.00000000E+00  0.00000000E+00  0.00000000E+00
  0.00000000E+00  0.00000000E+00  0.00000000E+00
  0.00000000E+00  0.00000000E+00  0.00000000E+00
  0.00000000E+00  0.00000000E+00  0.00000000E+00
  0.00000000E+00  0.00000000E+00  0.00000000E+00
  0.00000000E+00  0.00000000E+00  0.00000000E+00
  0.00000000E+00  0.00000000E+00  0.00000000E+00
  0.00000000E+00  0.00000000E+00  0.00000000E+00
  0.00000000E+00  0.00000000E+00  0.00000000E+00
  0.00000000E+00  0.00000000E+00  0.00000000E+00
  0.00000000E+00  0.00000000E+00  0.00000000E+00
  0.00000000E+00  0.00000000E+00  0.00000000E+00
  0.00000000E+00  0.00000000E+00  0.00000000E+00
  0.00000000E+00  0.00000000E+00  0.00000000E+00
  0.00000000E+00  0.00000000E+00  0.00000000E+00
  0.00000000E+00  0.00000000E+00  0.00000000E+00
  0.00000000E+00  0.00000000E+00  0.00000000E+00
  0.00000000E+00  0.00000000E+00  0.00000000E+00
  0.00000000E+00  0.00000000E+00  0.00000000E+00
  0.00000000E+00  0.00000000E+00  0.00000000E+00
  0.00000000E+00  0.00000000E+00  0.00000000E+00
  0.00000000E+00  0.00000000E+00  0.00000000E+00
  0.00000000E+00  0.00000000E+00  0.00000000E+00
  0.00000000E+00  0.00000000E+00  0.00000000E+00
  0.00000000E+00  0.00000000E+00  0.00000000E+00
  0.00000000E+00  0.00000000E+00  0.00000000E+00
  0.00000000E+00  0.00000000E+00  0.00000000E+00
  0.00000000E+00  0.00000000E+00  0.00000000E+00
  0.00000000E+00  0.00000000E+00  0.00000000E+00
  0.00000000E+00  0.00000000E+00  0.00000000E+00
