-50.0%_BDM_Distortion_vac_1_Cd[0. 0. 0.]
   1.00000000000000     
    13.0867679999999993    0.0000000000000000    0.0000000000000000
     0.0000000000000000   13.0867679999999993    0.0000000000000000
     0.0000000000000000    0.0000000000000000   13.0867679999999993
   Cd   Te
    31    32
Direct
  0.0006884903286971  0.9983788659887379  0.4982382428795851
  0.0011123906194396  0.4983088008138002 -0.0011958884598894
  0.0007370871696592  0.5000159792969406  0.4977780801552781
  0.5014660846300526  0.9984674459590737 -0.0015962337072482
  0.5005376402852454  0.9984983830795399  0.4972062251164061
  0.5010212569829486  0.4979062351156890 -0.0025016298682648
  0.4999387426531746  0.4987602469706414  0.4983006463274201
  0.9926027913241299  0.2444221293639576  0.2443957462132386
  0.0080027286257014  0.2445559573791881  0.7533714101854621
  0.0058564922537137  0.7539975312024356  0.2429992114092284
  0.9932594459944513  0.7538730758270319  0.7541679595806896
  0.4991767833349119  0.2472141121365673  0.2467292492580193
  0.5013746132448536  0.2471002807549053  0.7495529099282848
  0.5007642657478418  0.7497035978362823  0.2462584170413696
  0.4991825924236555  0.7508034235443527  0.7495087354397897
  0.2441890249609249  0.9943353371068615  0.2425255272413987
  0.2447081459899342  0.0059222031147441  0.7528335460450257
  0.2497915399970244  0.4989248488548125  0.2458412027545237
  0.2498073847768397  0.4987703039703807  0.7492822660509381
  0.7559671677801052  0.0051292737947599  0.2433968804644804
  0.7566051795026505  0.9932701200753699  0.7537630055555866
  0.7509669142505415  0.4988006072405150  0.2475339459974907
  0.7516814109395412  0.4984729727005386  0.7496360398188678
  0.2436444453533960  0.2434345593714237 -0.0078645451052647
  0.2498282972910413  0.2479714500400842  0.4971308447230092
  0.2445661874087804  0.7547222724147301  0.0027694265370877
  0.2489116658581378  0.7507323009127773  0.4981427109384536
  0.7566740992770086  0.2438518478240370  0.0038263684342641
  0.7512687292850981  0.2471691189106510  0.4998784080124230
  0.7561316028801996  0.7533961458356286 -0.0068292114957319
  0.7510418144695291  0.7501795176408160  0.4973822976479237
  0.1249341171937317  0.1239926151912092  0.3718630026712301
  0.1155434747381663  0.1144647650490446  0.8821639340125496
  0.1255943763672003  0.6245845872514090  0.3719585639956147
  0.1254124416356036  0.6248962171352673  0.8737146763459495
  0.6258178683150308  0.1239904984697944  0.3726603298111625
  0.6277601826100161  0.1234752851487270  0.8740772938919565
  0.6249028519892978  0.6241204310239320  0.3731637739992370
  0.6255016705760703  0.6248123345017160  0.8737734707698249
  0.1250155377722823  0.3716716593608027  0.1239892491222686
  0.1258141303053713  0.3740030314031819  0.6227567840182701
  0.1158051827117962  0.8823435309607591  0.1144890707796489
  0.1250549744380203  0.8738655674342589  0.6254161468942886
  0.6259946222465780  0.3725018483139068  0.1232679476970715
  0.6253246472857293  0.3738169700031148  0.6241340363398393
  0.6276347524659849  0.8740638484762300  0.1235322656923585
  0.6257749781552220  0.8744875481450949  0.6240851249287847
  0.3735825358918859  0.1233911886744459  0.1221215096157009
  0.3757279354597158  0.1238644744671168  0.6231580023010787
  0.3751046548507797  0.6247374219097921  0.1213329434809328
  0.3750041168274504  0.6245000721066164  0.6237297690575151
  0.8847048421356234  0.1152472204406391  0.1152455736691541
  0.8762166247994964  0.1237197963682551  0.6254394693831925
  0.8753318931975156  0.6244015821565401  0.1237911498233055
  0.8751890392739901  0.6244997671081848  0.6237566491423793
  0.3753122945610538  0.3740952350335141  0.3723328586013395
  0.3750007342228581  0.3723308980591174  0.8738988424532668
  0.3746550373410096  0.8743767299594217  0.3715118538644250
  0.3737161361499217  0.8754690172286910  0.8737483390337815
  0.8748670325420955  0.3738622980738090  0.3744159483568312
  0.8760384471234193  0.3725569759494032  0.8737799407234620
  0.8752974387455511  0.8741476980121049  0.3718787926385907
  0.8844114124322754  0.8824269415066396  0.8835348917651277
 
  0.00000000E+00  0.00000000E+00  0.00000000E+00
  0.00000000E+00  0.00000000E+00  0.00000000E+00
  0.00000000E+00  0.00000000E+00  0.00000000E+00
  0.00000000E+00  0.00000000E+00  0.00000000E+00
  0.00000000E+00  0.00000000E+00  0.00000000E+00
  0.00000000E+00  0.00000000E+00  0.00000000E+00
  0.00000000E+00  0.00000000E+00  0.00000000E+00
  0.00000000E+00  0.00000000E+00  0.00000000E+00
  0.00000000E+00  0.00000000E+00  0.00000000E+00
  0.00000000E+00  0.00000000E+00  0.00000000E+00
  0.00000000E+00  0.00000000E+00  0.00000000E+00
  0.00000000E+00  0.00000000E+00  0.00000000E+00
  0.00000000E+00  0.00000000E+00  0.00000000E+00
  0.00000000E+00  0.00000000E+00  0.00000000E+00
  0.00000000E+00  0.00000000E+00  0.00000000E+00
  0.00000000E+00  0.00000000E+00  0.00000000E+00
  0.00000000E+00  0.00000000E+00  0.00000000E+00
  0.00000000E+00  0.00000000E+00  0.00000000E+00
  0.00000000E+00  0.00000000E+00  0.00000000E+00
  0.00000000E+00  0.00000000E+00  0.00000000E+00
  0.00000000E+00  0.00000000E+00  0.00000000E+00
  0.00000000E+00  0.00000000E+00  0.00000000E+00
  0.00000000E+00  0.00000000E+00  0.00000000E+00
  0.00000000E+00  0.00000000E+00  0.00000000E+00
  0.00000000E+00  0.00000000E+00  0.00000000E+00
  0.00000000E+00  0.00000000E+00  0.00000000E+00
  0.00000000E+00  0.00000000E+00  0.00000000E+00
  0.00000000E+00  0.00000000E+00  0.00000000E+00
  0.00000000E+00  0.00000000E+00  0.00000000E+00
  0.00000000E+00  0.00000000E+00  0.00000000E+00
  0.00000000E+00  0.00000000E+00  0.00000000E+00
  0.00000000E+00  0.00000000E+00  0.00000000E+00
  0.00000000E+00  0.00000000E+00  0.00000000E+00
  0.00000000E+00  0.00000000E+00  0.00000000E+00
  0.00000000E+00  0.00000000E+00  0.00000000E+00
  0.00000000E+00  0.00000000E+00  0.00000000E+00
  0.00000000E+00  0.00000000E+00  0.00000000E+00
  0.00000000E+00  0.00000000E+00  0.00000000E+00
  0.00000000E+00  0.00000000E+00  0.00000000E+00
  0.00000000E+00  0.00000000E+00  0.00000000E+00
  0.00000000E+00  0.00000000E+00  0.00000000E+00
  0.00000000E+00  0.00000000E+00  0.00000000E+00
  0.00000000E+00  0.00000000E+00  0.00000000E+00
  0.00000000E+00  0.00000000E+00  0.00000000E+00
  0.00000000E+00  0.00000000E+00  0.00000000E+00
  0.00000000E+00  0.00000000E+00  0.00000000E+00
  0.00000000E+00  0.00000000E+00  0.00000000E+00
  0.00000000E+00  0.00000000E+00  0.00000000E+00
  0.00000000E+00  0.00000000E+00  0.00000000E+00
  0.00000000E+00  0.00000000E+00  0.00000000E+00
  0.00000000E+00  0.00000000E+00  0.00000000E+00
  0.00000000E+00  0.00000000E+00  0.00000000E+00
  0.00000000E+00  0.00000000E+00  0.00000000E+00
  0.00000000E+00  0.00000000E+00  0.00000000E+00
  0.00000000E+00  0.00000000E+00  0.00000000E+00
  0.00000000E+00  0.00000000E+00  0.00000000E+00
  0.00000000E+00  0.00000000E+00  0.00000000E+00
  0.00000000E+00  0.00000000E+00  0.00000000E+00
  0.00000000E+00  0.00000000E+00  0.00000000E+00
  0.00000000E+00  0.00000000E+00  0.00000000E+00
  0.00000000E+00  0.00000000E+00  0.00000000E+00
  0.00000000E+00  0.00000000E+00  0.00000000E+00
  0.00000000E+00  0.00000000E+00  0.00000000E+00
