-30.0%_BDM_Distortion_vac_1_Cd[0. 0. 0.]
   1.00000000000000     
    13.0867679999999993    0.0000000000000000    0.0000000000000000
     0.0000000000000000   13.0867679999999993    0.0000000000000000
     0.0000000000000000    0.0000000000000000   13.0867679999999993
   Cd   Te
    31    32
Direct
  0.0013925757441097  0.9986169353502591  0.4980015406105193
  0.0015066537329569  0.4981219549967388  0.9986490763242604
  0.0018988908759926  0.4985668791901014  0.4986684656911074
  0.5016953166387158  0.9979072014464458 -0.0020194181881532
  0.5008239609600634  0.9978760048876063  0.4978996012027956
  0.5009841092274858  0.4977376593412787 -0.0019791832443644
  0.5011318364184666  0.4982007138984770  0.4978911586311989
  0.9924839742812870  0.2443175102288114  0.2443437583434920
  0.0069058178827369  0.2436525701461957  0.7537451512283571
  0.0072212354888312  0.7537943326578729  0.2437015861820162
  0.9938003790254134  0.7537771223953991  0.7538837726215450
  0.4993288660614166  0.2468201381187571  0.2470300041599484
  0.5017621422919444  0.2467407179773413  0.7500786546837748
  0.5013377385928390  0.7496924817138669  0.2468549249324174
  0.4999372883559269  0.7495671196098727  0.7495269736259396
  0.2441105877227209  0.9924555382497707  0.2439380625110545
  0.2449598191313699  0.0045090365310408  0.7532773627472351
  0.2501278881313113  0.4987455259947791  0.2463487357931901
  0.2500883525088710  0.4977515227994656  0.7508636963553269
  0.7564919566979121  0.0059229853093914  0.2435031140934101
  0.7567973438845330  0.9931121263514280  0.7543047000067652
  0.7516945357824032  0.4990347127235229  0.2478620923561470
  0.7522447539857271  0.4984006538349143  0.7496804659093965
  0.2443395580774454  0.2421970375097594 -0.0055034360869083
  0.2504066131942529  0.2473625942202564  0.4976882953996973
  0.2446528495673385  0.7542480484412462  0.0040387482864362
  0.2499227061775743  0.7487887860302244  0.4998109685089147
  0.7566149568325078  0.2446720410826028  0.0050283466243215
  0.7515169400093159  0.2472019313884825  0.5001457035832451
  0.7562969714037618  0.7529608111261018 -0.0057260993832637
  0.7522523278446287  0.7505322689373326  0.4976800242842463
  0.1252427842743209  0.1241752999763148  0.3716533868517805
  0.1161295307828915  0.1145102685746766  0.8819707994762536
  0.1260335203083887  0.6239324445490537  0.3728276502206570
  0.1255423863609653  0.6249114637150989  0.8737366692342515
  0.6258435899182168  0.1239521471782988  0.3731864353485427
  0.6283308146380215  0.1236126196918656  0.8746032232752889
  0.6257809389599343  0.6242427542716912  0.3734075574588052
  0.6261744833397493  0.6243076120294078  0.8741045456973650
  0.1252172760334865  0.3715924397404067  0.1241702583068038
  0.1260690461512623  0.3728105021740730  0.6239770013795635
  0.1158289579909848  0.8823479200635832  0.1144230423017049
  0.1254906356077067  0.8737393886432170  0.6249773247168294
  0.6257867975153474  0.3730951139062157  0.1239728503301516
  0.6256673542103075  0.3736868511532561  0.6242490266550899
  0.6280013045372922  0.8742905333755211  0.1237399542998302
  0.6262976942689576  0.8741712277750504  0.6243687447889933
  0.3741721445533754  0.1214686403278941  0.1232701578296371
  0.3758147867092794  0.1230541011573016  0.6240028959891047
  0.3755781171301988  0.6245433405390574  0.1219411168988831
  0.3759031425903592  0.6226259268863555  0.6241333640494969
  0.8849521726196686  0.1155435690504377  0.1143946368244260
  0.8760986486157778  0.1230445506827119  0.6250481682307374
  0.8763434241511059  0.6242957334280828  0.1239520542774712
  0.8759279240803852  0.6241599679164184  0.6235020777827397
  0.3756494818754132  0.3738279260783405  0.3725602862539715
  0.3750679393031617  0.3711083052216291  0.8749095949146741
  0.3750125400704725  0.8733116715641408  0.3729055272199312
  0.3740759086493723  0.8742143675860208  0.8736269296948583
  0.8751539560928526  0.3738280066767665  0.3745059239713283
  0.8760546671392867  0.3725477197264758  0.8738686889130924
  0.8759751396316229  0.8746530618182053  0.3714794976106697
  0.8846049453599500  0.8819165620330993  0.8834977614029801
 
  0.00000000E+00  0.00000000E+00  0.00000000E+00
  0.00000000E+00  0.00000000E+00  0.00000000E+00
  0.00000000E+00  0.00000000E+00  0.00000000E+00
  0.00000000E+00  0.00000000E+00  0.00000000E+00
  0.00000000E+00  0.00000000E+00  0.00000000E+00
  0.00000000E+00  0.00000000E+00  0.00000000E+00
  0.00000000E+00  0.00000000E+00  0.00000000E+00
  0.00000000E+00  0.00000000E+00  0.00000000E+00
  0.00000000E+00  0.00000000E+00  0.00000000E+00
  0.00000000E+00  0.00000000E+00  0.00000000E+00
  0.00000000E+00  0.00000000E+00  0.00000000E+00
  0.00000000E+00  0.00000000E+00  0.00000000E+00
  0.00000000E+00  0.00000000E+00  0.00000000E+00
  0.00000000E+00  0.00000000E+00  0.00000000E+00
  0.00000000E+00  0.00000000E+00  0.00000000E+00
  0.00000000E+00  0.00000000E+00  0.00000000E+00
  0.00000000E+00  0.00000000E+00  0.00000000E+00
  0.00000000E+00  0.00000000E+00  0.00000000E+00
  0.00000000E+00  0.00000000E+00  0.00000000E+00
  0.00000000E+00  0.00000000E+00  0.00000000E+00
  0.00000000E+00  0.00000000E+00  0.00000000E+00
  0.00000000E+00  0.00000000E+00  0.00000000E+00
  0.00000000E+00  0.00000000E+00  0.00000000E+00
  0.00000000E+00  0.00000000E+00  0.00000000E+00
  0.00000000E+00  0.00000000E+00  0.00000000E+00
  0.00000000E+00  0.00000000E+00  0.00000000E+00
  0.00000000E+00  0.00000000E+00  0.00000000E+00
  0.00000000E+00  0.00000000E+00  0.00000000E+00
  0.00000000E+00  0.00000000E+00  0.00000000E+00
  0.00000000E+00  0.00000000E+00  0.00000000E+00
  0.00000000E+00  0.00000000E+00  0.00000000E+00
  0.00000000E+00  0.00000000E+00  0.00000000E+00
  0.00000000E+00  0.00000000E+00  0.00000000E+00
  0.00000000E+00  0.00000000E+00  0.00000000E+00
  0.00000000E+00  0.00000000E+00  0.00000000E+00
  0.00000000E+00  0.00000000E+00  0.00000000E+00
  0.00000000E+00  0.00000000E+00  0.00000000E+00
  0.00000000E+00  0.00000000E+00  0.00000000E+00
  0.00000000E+00  0.00000000E+00  0.00000000E+00
  0.00000000E+00  0.00000000E+00  0.00000000E+00
  0.00000000E+00  0.00000000E+00  0.00000000E+00
  0.00000000E+00  0.00000000E+00  0.00000000E+00
  0.00000000E+00  0.00000000E+00  0.00000000E+00
  0.00000000E+00  0.00000000E+00  0.00000000E+00
  0.00000000E+00  0.00000000E+00  0.00000000E+00
  0.00000000E+00  0.00000000E+00  0.00000000E+00
  0.00000000E+00  0.00000000E+00  0.00000000E+00
  0.00000000E+00  0.00000000E+00  0.00000000E+00
  0.00000000E+00  0.00000000E+00  0.00000000E+00
  0.00000000E+00  0.00000000E+00  0.00000000E+00
  0.00000000E+00  0.00000000E+00  0.00000000E+00
  0.00000000E+00  0.00000000E+00  0.00000000E+00
  0.00000000E+00  0.00000000E+00  0.00000000E+00
  0.00000000E+00  0.00000000E+00  0.00000000E+00
  0.00000000E+00  0.00000000E+00  0.00000000E+00
  0.00000000E+00  0.00000000E+00  0.00000000E+00
  0.00000000E+00  0.00000000E+00  0.00000000E+00
  0.00000000E+00  0.00000000E+00  0.00000000E+00
  0.00000000E+00  0.00000000E+00  0.00000000E+00
  0.00000000E+00  0.00000000E+00  0.00000000E+00
  0.00000000E+00  0.00000000E+00  0.00000000E+00
  0.00000000E+00  0.00000000E+00  0.00000000E+00
  0.00000000E+00  0.00000000E+00  0.00000000E+00
