# May want to change NCORE, KPAR, AEXX, ENCUT, IBRION, LREAL, NUPDOWN, ISPIN = Typical variable parameters
# ShakeNBreak INCAR with coarse settings to maximise speed with sufficient accuracy for qualitative structure searching = 
AEXX = 0.25
ALGO = Normal  # change to all if zhegv, fexcp/f or zbrent errors encountered (done automatically by snb-run)
EDIFF = 1e-05
EDIFFG = -0.01
ENCUT = 300
GGA = Pe
HFSCREEN = 0.208
IBRION = 2
ICHARG = 1
ICORELEVEL = 0  # needed if using the kumagai-oba (efnv) anisotropic charge correction scheme
ISIF = 2
ISMEAR = 0
ISPIN = 2
ISYM = 0  # symmetry breaking extremely likely for defects
LASPH = True
LCHARG = False
LHFCALC = True
LMAXMIX = 4
LORBIT = 11
LREAL = Auto
LVHAR = True
LWAVE = False
NCORE = 16
NEDOS = 2000
NELECT = 564.0
NELM = 40
NSW = 300
NUPDOWN = 0
PREC = Accurate
PRECFOCK = Fast
ROPT = 1e-3 1e-3
SIGMA = 0.05
