10.0%__num_neighbours=1__Vac_O_mult32   
   1.0000000000000000     
     0.0000000000000000   10.7468629999999994    0.0000000000000000
   -10.7468629999999994    0.0000000000000000    0.0000000000000000
     0.0000000000000000    0.0000000000000000    9.7925889999999995
   Sr   Cu   O 
    16    32    31
Direct
  0.0010938156552404  0.2316825073612559  0.2474651600903374
  0.5019196678441853  0.2444416488168528  0.2476540479219360
  0.0008166000581556  0.7577953595590505  0.2475927137147300
  0.5019399665898405  0.7452864060518559  0.2476194000454829
  0.2524176226251074 -0.0052403878327663  0.7468872371701362
  0.7512817226203933 -0.0049548537453854  0.7472662059011347
  0.2545508572987586  0.4947075840641016  0.7461438230024811
  0.7494265738582906  0.4950594781820828  0.7475351119937369
  0.0013788339705367  0.4950195347775593  0.5088823746778266
  0.5018512822048976  0.4949374996909771  0.4962587230064856
  0.0019203308948395 -0.0049793896455574  0.5003542583313598
  0.5018612047429183 -0.0049369884106150  0.4976902474272674
  0.2552382743946641  0.2458459736664189 -0.0039476191212340
  0.7485281716000816  0.2464761775208840 -0.0032358850867022
  0.2551769714458981  0.7434153922647176 -0.0038656752179154
  0.7483638848079432  0.7434924665411207 -0.0032982058085552
  0.2429462665711703  0.3734937786377538  0.3618352856731980
  0.7585907873715775  0.3730872241110473  0.3665310848942039
  0.2514045434445449  0.8689847852778402  0.3728731474417056
  0.7516632948338128  0.8703031092380041  0.3730727539956802
  0.5018761912927672  0.1196226260504969  0.8714303537709165
  0.0016887844651573  0.1193151595545067  0.8749311188791559
  0.5017448556252413  0.6198447336679007  0.8707112224914373
  0.0025767670888958  0.6146957788844525  0.8889647926680269
  0.3795185504590821  0.4946973913613886  0.1222532899711428
  0.9011151148426105  0.4948889249298867  0.0940085989045793
  0.3762556939225395  0.9946360307520992  0.1236192953012764
  0.8772807165989799 -0.0052628610045771  0.1158778545251248
  0.6276679710355824  0.2455472591982739  0.6226809730298352
  0.1282344236368453  0.2451099472171204  0.6197503154513732
  0.6267462716958055  0.7447233027901867  0.6228861615574725
  0.1273242331643240  0.7445346624959972  0.6202804805337220
  0.2427474527022386  0.6157720798982100  0.3614573813668829
  0.7582603652865754  0.6189665228864001  0.3673526131363349
  0.2515360455838603  0.1207928150971800  0.3729037048112951
  0.7517148457549533  0.1216560132747333  0.3735650439959037
  0.5019168482160130  0.3691569506382766  0.8707889347310513
  0.0028449085172005  0.3755196598510900  0.8893194226097106
  0.5018169218252654  0.8692411933335212  0.8711894850589296
  0.0016096150447019  0.8711316513645252  0.8753763375340946
  0.1164399905687587  0.4947383181285308  0.1119412007950848
  0.6286089350546609  0.4947833872555704  0.1252242193234689
  0.1260943141704986 -0.0053928842460653  0.1163753602819910
  0.6265120137874194 -0.0050727567663717  0.1237148702821516
  0.3780068578874665  0.2450406362659602  0.6231374699259181
  0.8772557831620486  0.2451767472896708  0.6205278561808018
  0.3771452546975728  0.7444942854213369  0.6228169031227816
  0.8762977278481220  0.7447534705374458  0.6201035229724137
  0.5027946294558990  0.4947783485718144  0.2499492807085660
  0.0014832880538541 -0.0053108522067511  0.2442176339439207
  0.5013107078981458  0.9947306399475682  0.2488058018703267
  0.2512555559958804  0.2453289700170527  0.7468423000762144
  0.7538398429789341  0.2458695971637507  0.7472516101879640
  0.2507153642718430  0.7436007246949095  0.7468744321295285
  0.7531432300655174  0.7441680403277414  0.7471771445084583
  0.0019166796369359  0.2421148039676776  0.0022531026922583
  0.5021180464410877  0.2445164902289614 -0.0025352641178988
  0.0012819570256354  0.7478817736331423  0.0021504927877534
  0.5017401854694296  0.7444962323477956 -0.0025989394576462
  0.2512185568378166 -0.0051105498558914  0.4972619888662694
  0.7523849423075679 -0.0042601443761822  0.4977926600375931
  0.2435076940487417  0.4947709627956982  0.4915175954180911
  0.7587710300964130  0.4956806921627951  0.4946491142323056
  0.0024862526505322  0.2476608768942641  0.4953373788150528
  0.5025414565034357  0.2463738457389190  0.4969299835130623
  0.0019765983029879  0.7424161760119212  0.4954278075914596
  0.5018398290057329  0.7436665195363362  0.4968455559247107
  0.2536549125349932 -0.0052886610601763 -0.0046176726282043
  0.7492056493275736 -0.0048201692551891  0.9956452216823835
  0.2570964370478303  0.4945229281243331 -0.0047594106208526
  0.7498367870310356  0.4950449842286724  0.9967491789902592
  0.0029682953104150  0.4949313718941182  0.7556189528685030
  0.5017797254631819  0.4944952045790016  0.7450684704651865
  0.0016772444150498 -0.0049552991268509  0.7479879720284741
  0.5013967483260836 -0.0054915974729220  0.7461964051355595
  0.2486575493786242  0.2435102289793800  0.2444447905500484
  0.7548129343796415  0.2451170018194037  0.2459793851012180
  0.2480993006620816  0.7460342589155829  0.2445620943044738
  0.7540614423090845  0.7463412485181862  0.2460069591288112

  0.00000000E+00  0.00000000E+00  0.00000000E+00
  0.00000000E+00  0.00000000E+00  0.00000000E+00
  0.00000000E+00  0.00000000E+00  0.00000000E+00
  0.00000000E+00  0.00000000E+00  0.00000000E+00
  0.00000000E+00  0.00000000E+00  0.00000000E+00
  0.00000000E+00  0.00000000E+00  0.00000000E+00
  0.00000000E+00  0.00000000E+00  0.00000000E+00
  0.00000000E+00  0.00000000E+00  0.00000000E+00
  0.00000000E+00  0.00000000E+00  0.00000000E+00
  0.00000000E+00  0.00000000E+00  0.00000000E+00
  0.00000000E+00  0.00000000E+00  0.00000000E+00
  0.00000000E+00  0.00000000E+00  0.00000000E+00
  0.00000000E+00  0.00000000E+00  0.00000000E+00
  0.00000000E+00  0.00000000E+00  0.00000000E+00
  0.00000000E+00  0.00000000E+00  0.00000000E+00
  0.00000000E+00  0.00000000E+00  0.00000000E+00
  0.00000000E+00  0.00000000E+00  0.00000000E+00
  0.00000000E+00  0.00000000E+00  0.00000000E+00
  0.00000000E+00  0.00000000E+00  0.00000000E+00
  0.00000000E+00  0.00000000E+00  0.00000000E+00
  0.00000000E+00  0.00000000E+00  0.00000000E+00
  0.00000000E+00  0.00000000E+00  0.00000000E+00
  0.00000000E+00  0.00000000E+00  0.00000000E+00
  0.00000000E+00  0.00000000E+00  0.00000000E+00
  0.00000000E+00  0.00000000E+00  0.00000000E+00
  0.00000000E+00  0.00000000E+00  0.00000000E+00
  0.00000000E+00  0.00000000E+00  0.00000000E+00
  0.00000000E+00  0.00000000E+00  0.00000000E+00
  0.00000000E+00  0.00000000E+00  0.00000000E+00
  0.00000000E+00  0.00000000E+00  0.00000000E+00
  0.00000000E+00  0.00000000E+00  0.00000000E+00
  0.00000000E+00  0.00000000E+00  0.00000000E+00
  0.00000000E+00  0.00000000E+00  0.00000000E+00
  0.00000000E+00  0.00000000E+00  0.00000000E+00
  0.00000000E+00  0.00000000E+00  0.00000000E+00
  0.00000000E+00  0.00000000E+00  0.00000000E+00
  0.00000000E+00  0.00000000E+00  0.00000000E+00
  0.00000000E+00  0.00000000E+00  0.00000000E+00
  0.00000000E+00  0.00000000E+00  0.00000000E+00
  0.00000000E+00  0.00000000E+00  0.00000000E+00
  0.00000000E+00  0.00000000E+00  0.00000000E+00
  0.00000000E+00  0.00000000E+00  0.00000000E+00
  0.00000000E+00  0.00000000E+00  0.00000000E+00
  0.00000000E+00  0.00000000E+00  0.00000000E+00
  0.00000000E+00  0.00000000E+00  0.00000000E+00
  0.00000000E+00  0.00000000E+00  0.00000000E+00
  0.00000000E+00  0.00000000E+00  0.00000000E+00
  0.00000000E+00  0.00000000E+00  0.00000000E+00
  0.00000000E+00  0.00000000E+00  0.00000000E+00
  0.00000000E+00  0.00000000E+00  0.00000000E+00
  0.00000000E+00  0.00000000E+00  0.00000000E+00
  0.00000000E+00  0.00000000E+00  0.00000000E+00
  0.00000000E+00  0.00000000E+00  0.00000000E+00
  0.00000000E+00  0.00000000E+00  0.00000000E+00
  0.00000000E+00  0.00000000E+00  0.00000000E+00
  0.00000000E+00  0.00000000E+00  0.00000000E+00
  0.00000000E+00  0.00000000E+00  0.00000000E+00
  0.00000000E+00  0.00000000E+00  0.00000000E+00
  0.00000000E+00  0.00000000E+00  0.00000000E+00
  0.00000000E+00  0.00000000E+00  0.00000000E+00
  0.00000000E+00  0.00000000E+00  0.00000000E+00
  0.00000000E+00  0.00000000E+00  0.00000000E+00
  0.00000000E+00  0.00000000E+00  0.00000000E+00
  0.00000000E+00  0.00000000E+00  0.00000000E+00
  0.00000000E+00  0.00000000E+00  0.00000000E+00
  0.00000000E+00  0.00000000E+00  0.00000000E+00
  0.00000000E+00  0.00000000E+00  0.00000000E+00
  0.00000000E+00  0.00000000E+00  0.00000000E+00
  0.00000000E+00  0.00000000E+00  0.00000000E+00
  0.00000000E+00  0.00000000E+00  0.00000000E+00
  0.00000000E+00  0.00000000E+00  0.00000000E+00
  0.00000000E+00  0.00000000E+00  0.00000000E+00
  0.00000000E+00  0.00000000E+00  0.00000000E+00
  0.00000000E+00  0.00000000E+00  0.00000000E+00
  0.00000000E+00  0.00000000E+00  0.00000000E+00
  0.00000000E+00  0.00000000E+00  0.00000000E+00
  0.00000000E+00  0.00000000E+00  0.00000000E+00
  0.00000000E+00  0.00000000E+00  0.00000000E+00
  0.00000000E+00  0.00000000E+00  0.00000000E+00
