vac_1_Cd[0. 0. 0.]_KV=-dNELECT=-1       
   1.00000000000000     
    13.0867679999999993    0.0000000000000000    0.0000000000000000
     0.0000000000000000   13.0867679999999993    0.0000000000000000
     0.0000000000000000    0.0000000000000000   13.0867679999999993
   Cd   Te
    31    32
Direct
 -0.0001681922996300 -0.0002143372564909  0.4987328236596145
 -0.0001681057425534  0.4987329440054813 -0.0002145581268295
  0.0003287049037396  0.4993097590643674  0.4993100801997305
  0.4987669375047541 -0.0002124837934916 -0.0002127561679230
  0.4993511581839546  0.0003099737017345  0.4993174948383470
  0.4993513190939727  0.4993174338242559  0.0003097885784497
  0.5000058200770608  0.4999995639787984  0.4999995827326804
 -0.0063520108126487  0.2426425743456059  0.2426423399792507
  0.0089661277035203  0.2467410831843787  0.7561685352792735
  0.0089661326858450  0.7561684371273959  0.2467414072028307
  0.0087975583606435  0.7479449604816587  0.7479445324889281
  0.4987257151549783  0.2488605684924871  0.2488606626182801
  0.4998869895840918  0.2508863484962996  0.7506067161744004
  0.4998870505575885  0.7506067769608147  0.2508867068734362
  0.4994540895282749  0.7522094657337047  0.7522093817903530
  0.2426432124348420 -0.0061960958614329  0.2426723898777392
  0.2467305038681916  0.0090084675908477  0.7561249859117377
  0.2488286641802113  0.4987668491538558  0.2488457915204892
  0.2509230351566221  0.4998622025291186  0.7505722832841550
  0.7562173121335641  0.0091081706667071  0.2466728148638043
  0.7480351090975697  0.0088825558534454  0.7480218568606192
  0.7505393622886046  0.4998896851070163  0.2509116750058560
  0.7521802060766444  0.4994603187977935  0.7522422628096381
  0.2426432175666044  0.2426723915713401 -0.0061961325440759
  0.2488287268783478  0.2488456017561599  0.4987665340920900
  0.2467308922757893  0.7561249303869962  0.0090084749834649
  0.2509234241482232  0.7505722552704891  0.4998621710916109
  0.7562173676422529  0.2466727315171549  0.0091081782688592
  0.7505392241597868  0.2509117209434064  0.4998897910681445
  0.7480348836234573  0.7480220012626025  0.0088829373151756
  0.7521801683954688  0.7522423522512564  0.4994603484116033
  0.1245008875793916  0.1245759113780133  0.3728502749550839
  0.1138144862706541  0.1138147024536237  0.8833592321582538
  0.1257071569831320  0.6249821490342757  0.3754421890671777
  0.1281597361906032  0.6250291909310605  0.8777425642117997
  0.6249813119352309  0.1257283611266606  0.3754155772862530
  0.6250668180986830  0.1281794674782415  0.8778068953458036
  0.6258138523090748  0.6258509900813579  0.3763358268497485
  0.6260139289245664  0.6260382059746222  0.8760064950358977
  0.1245009921931241  0.3728504575438944  0.1245758592006362
  0.1257071928434589  0.3754417942627341  0.6249821686266702
  0.1138146987250319  0.8833588006680961  0.1138148453510655
  0.1281598670201093  0.8777426665868692  0.6250288040572778
  0.6249812926553767  0.3754154742534175  0.1257283909775739
  0.6258137380513623  0.3763357760368064  0.6258510906774695
  0.6250665233582737  0.8778070962684852  0.1281796087393414
  0.6260137722072228  0.8760065375244667  0.6260380408621887
  0.3728761262806421  0.1245309982365199  0.1245309692203122
  0.3754633313627150  0.1257230075777849  0.6249553127393680
  0.3754635924998347  0.6249552402530594  0.1257230981546654
  0.3763420940045490  0.6258275076817784  0.6258276178002797
  0.8835421953166387  0.1136582948291334  0.1136582950025167
  0.8777795367365419  0.1281683252993839  0.6250069773391290
  0.8777796373746425  0.6250070095303112  0.1281683270168988
  0.8759343546187284  0.6259639026860802  0.6259638574894848
  0.3749455894869461  0.3749776455920483  0.3749775673538699
  0.3738348274936205  0.3738245032087859  0.8762842849426308
  0.3738347890795359  0.8762844916220028  0.3738245105557177
  0.3732858422951588  0.8754815995703243  0.8754814154712437
  0.8762276794934895  0.3738298349476704  0.3738299414360700
  0.8754508701025436  0.3732884157315510  0.8755179593189213
  0.8754508122431653  0.8755180740425038  0.3732885238876064
  0.8656778618562069  0.8656543604447183  0.8656543779272993
 
  0.00000000E+00  0.00000000E+00  0.00000000E+00
  0.00000000E+00  0.00000000E+00  0.00000000E+00
  0.00000000E+00  0.00000000E+00  0.00000000E+00
  0.00000000E+00  0.00000000E+00  0.00000000E+00
  0.00000000E+00  0.00000000E+00  0.00000000E+00
  0.00000000E+00  0.00000000E+00  0.00000000E+00
  0.00000000E+00  0.00000000E+00  0.00000000E+00
  0.00000000E+00  0.00000000E+00  0.00000000E+00
  0.00000000E+00  0.00000000E+00  0.00000000E+00
  0.00000000E+00  0.00000000E+00  0.00000000E+00
  0.00000000E+00  0.00000000E+00  0.00000000E+00
  0.00000000E+00  0.00000000E+00  0.00000000E+00
  0.00000000E+00  0.00000000E+00  0.00000000E+00
  0.00000000E+00  0.00000000E+00  0.00000000E+00
  0.00000000E+00  0.00000000E+00  0.00000000E+00
  0.00000000E+00  0.00000000E+00  0.00000000E+00
  0.00000000E+00  0.00000000E+00  0.00000000E+00
  0.00000000E+00  0.00000000E+00  0.00000000E+00
  0.00000000E+00  0.00000000E+00  0.00000000E+00
  0.00000000E+00  0.00000000E+00  0.00000000E+00
  0.00000000E+00  0.00000000E+00  0.00000000E+00
  0.00000000E+00  0.00000000E+00  0.00000000E+00
  0.00000000E+00  0.00000000E+00  0.00000000E+00
  0.00000000E+00  0.00000000E+00  0.00000000E+00
  0.00000000E+00  0.00000000E+00  0.00000000E+00
  0.00000000E+00  0.00000000E+00  0.00000000E+00
  0.00000000E+00  0.00000000E+00  0.00000000E+00
  0.00000000E+00  0.00000000E+00  0.00000000E+00
  0.00000000E+00  0.00000000E+00  0.00000000E+00
  0.00000000E+00  0.00000000E+00  0.00000000E+00
  0.00000000E+00  0.00000000E+00  0.00000000E+00
  0.00000000E+00  0.00000000E+00  0.00000000E+00
  0.00000000E+00  0.00000000E+00  0.00000000E+00
  0.00000000E+00  0.00000000E+00  0.00000000E+00
  0.00000000E+00  0.00000000E+00  0.00000000E+00
  0.00000000E+00  0.00000000E+00  0.00000000E+00
  0.00000000E+00  0.00000000E+00  0.00000000E+00
  0.00000000E+00  0.00000000E+00  0.00000000E+00
  0.00000000E+00  0.00000000E+00  0.00000000E+00
  0.00000000E+00  0.00000000E+00  0.00000000E+00
  0.00000000E+00  0.00000000E+00  0.00000000E+00
  0.00000000E+00  0.00000000E+00  0.00000000E+00
  0.00000000E+00  0.00000000E+00  0.00000000E+00
  0.00000000E+00  0.00000000E+00  0.00000000E+00
  0.00000000E+00  0.00000000E+00  0.00000000E+00
  0.00000000E+00  0.00000000E+00  0.00000000E+00
  0.00000000E+00  0.00000000E+00  0.00000000E+00
  0.00000000E+00  0.00000000E+00  0.00000000E+00
  0.00000000E+00  0.00000000E+00  0.00000000E+00
  0.00000000E+00  0.00000000E+00  0.00000000E+00
  0.00000000E+00  0.00000000E+00  0.00000000E+00
  0.00000000E+00  0.00000000E+00  0.00000000E+00
  0.00000000E+00  0.00000000E+00  0.00000000E+00
  0.00000000E+00  0.00000000E+00  0.00000000E+00
  0.00000000E+00  0.00000000E+00  0.00000000E+00
  0.00000000E+00  0.00000000E+00  0.00000000E+00
  0.00000000E+00  0.00000000E+00  0.00000000E+00
  0.00000000E+00  0.00000000E+00  0.00000000E+00
  0.00000000E+00  0.00000000E+00  0.00000000E+00
  0.00000000E+00  0.00000000E+00  0.00000000E+00
  0.00000000E+00  0.00000000E+00  0.00000000E+00
  0.00000000E+00  0.00000000E+00  0.00000000E+00
  0.00000000E+00  0.00000000E+00  0.00000000E+00
