-20.0%_BDM_Distortion_vac_1_Cd[0. 0. 0.]
   1.00000000000000     
    13.0867679999999993    0.0000000000000000    0.0000000000000000
     0.0000000000000000   13.0867679999999993    0.0000000000000000
     0.0000000000000000    0.0000000000000000   13.0867679999999993
   Cd   Te
    31    32
Direct
  0.0017383041861766  0.9979335058047263  0.4981792556566255
  0.0016620015152207  0.4978428014722156  0.9985218940231794
  0.0020049397954191  0.4988498152948501  0.4989377151356743
  0.5017356878762906  0.9978711676482968 -0.0019588995186571
  0.5008972251574983  0.9974503098536043  0.4987345664868901
  0.5011590226436716  0.4976271855728360 -0.0016464418396119
  0.5013895078957565  0.4981830425521258  0.4984662655984362
  0.9926433086068081  0.2441671915785292  0.2448513139559915
  0.0067514247024345  0.2433871238850632  0.7534132627687971
  0.0077459880796568  0.7541244692677608  0.2434019150286640
  0.9942746663178330  0.7539384219640384  0.7543301658714848
  0.4999308557687397  0.2463968994101841  0.2476129917642534
  0.5017555618467318  0.2467321163992203  0.7502688718369332
  0.5015553596748303  0.7498072087656861  0.2471508140453783
  0.5001848858028723  0.7498140512874270  0.7495379338220753
  0.2443673121010247  0.9920983071983671  0.2440452529051424
  0.2448895359886592  0.0042074556535233  0.7531457952157490
  0.2500707443052863  0.4983913195582821  0.2467053064555549
  0.2498789273392692  0.4974650049765620  0.7510722119186111
  0.7569570717022185  0.0051279075691886  0.2440481971444518
  0.7569535856796871  0.9929690074086509  0.7546402070781568
  0.7520497985928226  0.4988042625232661  0.2478781196411567
  0.7524959061708681  0.4984980718903404  0.7501149526498418
  0.2445490988005012  0.2421607732069541 -0.0052452586091051
  0.2505536213366866  0.2474861191412546  0.4976397567182149
  0.2450866314929958  0.7538255758905462  0.0045128598396649
  0.2504467790793846  0.7479040807408117  0.4997496340750889
  0.7568815498196801  0.2443762976566135  0.0052901908303623
  0.7515021706652777  0.2469819879859658  0.5003385847761787
  0.7564694685493704  0.7528109210539426 -0.0054328692129746
  0.7524058324076189  0.7497118202371023  0.4979706990596964
  0.1254448849882072  0.1238199615300935  0.3720013730376281
  0.1163534748939862  0.1146034858950772  0.8817948630743097
  0.1260540559081152  0.6239236264950282  0.3727928185540829
  0.1257939774306425  0.6247367946413777  0.8738112916665274
  0.6260425754500754  0.1228513806086070  0.3738390470846237
  0.6284016169429166  0.1235542436734872  0.8746759856387440
  0.6259709247674180  0.6240291879711387  0.3735394500025333
  0.6261895002800728  0.6243447929447390  0.8742408858457426
  0.1252268809635997  0.3713480727924043  0.1242511566052120
  0.1260685818525598  0.3727725916113004  0.6239540532060273
  0.1161168333915970  0.8827054048020410  0.1138113860651916
  0.1258842245504978  0.8728901233175348  0.6247413685501160
  0.6259849714114859  0.3727257613070487  0.1239697043853426
  0.6258084116798546  0.3737165219645945  0.6245859378417379
  0.6281497731575394  0.8741656284874777  0.1238129956192472
  0.6269298163538933  0.8739545455760269  0.6244826224070988
  0.3743673865116151  0.1214322821559754  0.1234410556920699
  0.3758001577949917  0.1231029174060110  0.6240377500491117
  0.3759702084282726  0.6241342194309291  0.1226099483419422
  0.3759458125912833  0.6223149632226418  0.6246527388457179
  0.8850404697879690  0.1154962251193163  0.1149950853125705
  0.8761922199125071  0.1224176286696686  0.6249800123978965
  0.8768330192753555  0.6242209381293395  0.1240106784582920
  0.8763654155704336  0.6241996377006716  0.6241002802326595
  0.3760222615340383  0.3738137894593279  0.3727534460609784
  0.3750975084463612  0.3711379907945971  0.8750006307799589
  0.3751812461777783  0.8730979756573938  0.3734605957758526
  0.3741200018077632  0.8741576953322963  0.8736349610364598
  0.8754435616640067  0.3738094079154911  0.3749149049792442
  0.8761510910710215  0.3721066905103677  0.8737734582296314
  0.8761881043859030  0.8738504259526189  0.3719721500174094
  0.8849252571169183  0.8819278654774546  0.8837660990841180
 
  0.00000000E+00  0.00000000E+00  0.00000000E+00
  0.00000000E+00  0.00000000E+00  0.00000000E+00
  0.00000000E+00  0.00000000E+00  0.00000000E+00
  0.00000000E+00  0.00000000E+00  0.00000000E+00
  0.00000000E+00  0.00000000E+00  0.00000000E+00
  0.00000000E+00  0.00000000E+00  0.00000000E+00
  0.00000000E+00  0.00000000E+00  0.00000000E+00
  0.00000000E+00  0.00000000E+00  0.00000000E+00
  0.00000000E+00  0.00000000E+00  0.00000000E+00
  0.00000000E+00  0.00000000E+00  0.00000000E+00
  0.00000000E+00  0.00000000E+00  0.00000000E+00
  0.00000000E+00  0.00000000E+00  0.00000000E+00
  0.00000000E+00  0.00000000E+00  0.00000000E+00
  0.00000000E+00  0.00000000E+00  0.00000000E+00
  0.00000000E+00  0.00000000E+00  0.00000000E+00
  0.00000000E+00  0.00000000E+00  0.00000000E+00
  0.00000000E+00  0.00000000E+00  0.00000000E+00
  0.00000000E+00  0.00000000E+00  0.00000000E+00
  0.00000000E+00  0.00000000E+00  0.00000000E+00
  0.00000000E+00  0.00000000E+00  0.00000000E+00
  0.00000000E+00  0.00000000E+00  0.00000000E+00
  0.00000000E+00  0.00000000E+00  0.00000000E+00
  0.00000000E+00  0.00000000E+00  0.00000000E+00
  0.00000000E+00  0.00000000E+00  0.00000000E+00
  0.00000000E+00  0.00000000E+00  0.00000000E+00
  0.00000000E+00  0.00000000E+00  0.00000000E+00
  0.00000000E+00  0.00000000E+00  0.00000000E+00
  0.00000000E+00  0.00000000E+00  0.00000000E+00
  0.00000000E+00  0.00000000E+00  0.00000000E+00
  0.00000000E+00  0.00000000E+00  0.00000000E+00
  0.00000000E+00  0.00000000E+00  0.00000000E+00
  0.00000000E+00  0.00000000E+00  0.00000000E+00
  0.00000000E+00  0.00000000E+00  0.00000000E+00
  0.00000000E+00  0.00000000E+00  0.00000000E+00
  0.00000000E+00  0.00000000E+00  0.00000000E+00
  0.00000000E+00  0.00000000E+00  0.00000000E+00
  0.00000000E+00  0.00000000E+00  0.00000000E+00
  0.00000000E+00  0.00000000E+00  0.00000000E+00
  0.00000000E+00  0.00000000E+00  0.00000000E+00
  0.00000000E+00  0.00000000E+00  0.00000000E+00
  0.00000000E+00  0.00000000E+00  0.00000000E+00
  0.00000000E+00  0.00000000E+00  0.00000000E+00
  0.00000000E+00  0.00000000E+00  0.00000000E+00
  0.00000000E+00  0.00000000E+00  0.00000000E+00
  0.00000000E+00  0.00000000E+00  0.00000000E+00
  0.00000000E+00  0.00000000E+00  0.00000000E+00
  0.00000000E+00  0.00000000E+00  0.00000000E+00
  0.00000000E+00  0.00000000E+00  0.00000000E+00
  0.00000000E+00  0.00000000E+00  0.00000000E+00
  0.00000000E+00  0.00000000E+00  0.00000000E+00
  0.00000000E+00  0.00000000E+00  0.00000000E+00
  0.00000000E+00  0.00000000E+00  0.00000000E+00
  0.00000000E+00  0.00000000E+00  0.00000000E+00
  0.00000000E+00  0.00000000E+00  0.00000000E+00
  0.00000000E+00  0.00000000E+00  0.00000000E+00
  0.00000000E+00  0.00000000E+00  0.00000000E+00
  0.00000000E+00  0.00000000E+00  0.00000000E+00
  0.00000000E+00  0.00000000E+00  0.00000000E+00
  0.00000000E+00  0.00000000E+00  0.00000000E+00
  0.00000000E+00  0.00000000E+00  0.00000000E+00
  0.00000000E+00  0.00000000E+00  0.00000000E+00
  0.00000000E+00  0.00000000E+00  0.00000000E+00
  0.00000000E+00  0.00000000E+00  0.00000000E+00
