# Sample input file for FHI-aims
# All keywords and values are case sensitive

# Physical model
xc hse
charge 0.0
spin collinear # polarized
default_initial_moment 0

# SCF
sc_iter_limit 50

# Relaxation
relax_geometry bfgs 0.001
