#=======================================================
# FHI-aims file: ./vac_1_Cd_0/Unperturbed/geometry.in
# Created using the Atomic Simulation Environment (ASE)
# Thu Aug 11 23:24:54 2022

# Additional information:
# Unperturbed
#=======================================================
lattice_vector 13.0867679999999993 0.0000000000000000 0.0000000000000000 
lattice_vector 0.0000000000000000 13.0867679999999993 0.0000000000000000 
lattice_vector 0.0000000000000000 0.0000000000000000 13.0867679999999993 
atom 0.0000000000000000 0.0000000000000000 6.5433839999999996 Cd
atom 0.0000000000000000 6.5433839999999996 0.0000000000000000 Cd
atom 0.0000000000000000 6.5433839999999996 6.5433839999999996 Cd
atom 6.5433839999999996 0.0000000000000000 0.0000000000000000 Cd
atom 6.5433839999999996 0.0000000000000000 6.5433839999999996 Cd
atom 6.5433839999999996 6.5433839999999996 0.0000000000000000 Cd
atom 6.5433839999999996 6.5433839999999996 6.5433839999999996 Cd
atom 0.0000000000000000 3.2716919999999998 3.2716919999999998 Cd
atom 0.0000000000000000 3.2716919999999998 9.8150759999999995 Cd
atom 0.0000000000000000 9.8150759999999995 3.2716919999999998 Cd
atom 0.0000000000000000 9.8150759999999995 9.8150759999999995 Cd
atom 6.5433839999999996 3.2716919999999998 3.2716919999999998 Cd
atom 6.5433839999999996 3.2716919999999998 9.8150759999999995 Cd
atom 6.5433839999999996 9.8150759999999995 3.2716919999999998 Cd
atom 6.5433839999999996 9.8150759999999995 9.8150759999999995 Cd
atom 3.2716919999999998 0.0000000000000000 3.2716919999999998 Cd
atom 3.2716919999999998 0.0000000000000000 9.8150759999999995 Cd
atom 3.2716919999999998 6.5433839999999996 3.2716919999999998 Cd
atom 3.2716919999999998 6.5433839999999996 9.8150759999999995 Cd
atom 9.8150759999999995 0.0000000000000000 3.2716919999999998 Cd
atom 9.8150759999999995 0.0000000000000000 9.8150759999999995 Cd
atom 9.8150759999999995 6.5433839999999996 3.2716919999999998 Cd
atom 9.8150759999999995 6.5433839999999996 9.8150759999999995 Cd
atom 3.2716919999999998 3.2716919999999998 0.0000000000000000 Cd
atom 3.2716919999999998 3.2716919999999998 6.5433839999999996 Cd
atom 3.2716919999999998 9.8150759999999995 0.0000000000000000 Cd
atom 3.2716919999999998 9.8150759999999995 6.5433839999999996 Cd
atom 9.8150759999999995 3.2716919999999998 0.0000000000000000 Cd
atom 9.8150759999999995 3.2716919999999998 6.5433839999999996 Cd
atom 9.8150759999999995 9.8150759999999995 0.0000000000000000 Cd
atom 9.8150759999999995 9.8150759999999995 6.5433839999999996 Cd
atom 1.6358459999999999 1.6358459999999999 4.9075379999999997 Te
atom 1.6358459999999999 1.6358459999999999 11.4509219999999985 Te
atom 1.6358459999999999 8.1792300000000004 4.9075379999999997 Te
atom 1.6358459999999999 8.1792300000000004 11.4509219999999985 Te
atom 8.1792300000000004 1.6358459999999999 4.9075379999999997 Te
atom 8.1792300000000004 1.6358459999999999 11.4509219999999985 Te
atom 8.1792300000000004 8.1792300000000004 4.9075379999999997 Te
atom 8.1792300000000004 8.1792300000000004 11.4509219999999985 Te
atom 1.6358459999999999 4.9075379999999997 1.6358459999999999 Te
atom 1.6358459999999999 4.9075379999999997 8.1792300000000004 Te
atom 1.6358459999999999 11.4509219999999985 1.6358459999999999 Te
atom 1.6358459999999999 11.4509219999999985 8.1792300000000004 Te
atom 8.1792300000000004 4.9075379999999997 1.6358459999999999 Te
atom 8.1792300000000004 4.9075379999999997 8.1792300000000004 Te
atom 8.1792300000000004 11.4509219999999985 1.6358459999999999 Te
atom 8.1792300000000004 11.4509219999999985 8.1792300000000004 Te
atom 4.9075379999999997 1.6358459999999999 1.6358459999999999 Te
atom 4.9075379999999997 1.6358459999999999 8.1792300000000004 Te
atom 4.9075379999999997 8.1792300000000004 1.6358459999999999 Te
atom 4.9075379999999997 8.1792300000000004 8.1792300000000004 Te
atom 11.4509219999999985 1.6358459999999999 1.6358459999999999 Te
atom 11.4509219999999985 1.6358459999999999 8.1792300000000004 Te
atom 11.4509219999999985 8.1792300000000004 1.6358459999999999 Te
atom 11.4509219999999985 8.1792300000000004 8.1792300000000004 Te
atom 4.9075379999999997 4.9075379999999997 4.9075379999999997 Te
atom 4.9075379999999997 4.9075379999999997 11.4509219999999985 Te
atom 4.9075379999999997 11.4509219999999985 4.9075379999999997 Te
atom 4.9075379999999997 11.4509219999999985 11.4509219999999985 Te
atom 11.4509219999999985 4.9075379999999997 4.9075379999999997 Te
atom 11.4509219999999985 4.9075379999999997 11.4509219999999985 Te
atom 11.4509219999999985 11.4509219999999985 4.9075379999999997 Te
atom 11.4509219999999985 11.4509219999999985 11.4509219999999985 Te
