20.0%_BDM_Distortion_vac_1_Cd[0. 0. 0.]_
   1.00000000000000     
    13.0867679999999993    0.0000000000000000    0.0000000000000000
     0.0000000000000000   13.0867679999999993    0.0000000000000000
     0.0000000000000000    0.0000000000000000   13.0867679999999993
   Cd   Te
    31    32
Direct
  0.0019905218298144  0.9973298582335406  0.4996101132597510
  0.0016294953524127  0.4976611942114954 -0.0002431685208609
  0.0020240767629728  0.4975012000040739  0.5008281080380702
  0.5023633414233286  0.9977153435833502  0.9994136742233326
  0.5010502536805620  0.9967559887758753  0.4999670411103928
  0.5011465053281122  0.4975481936609424  0.9994928767910827
  0.5019635765617981  0.4977701501935144  0.4998006159309056
  0.9943726240402283  0.2444034748166473  0.2463912277112363
  0.0100312244008988  0.2436879379876233  0.7550412300264391
  0.0064874221238112  0.7525099061723538  0.2455834466376918
  0.9937614240094932  0.7530896668659642  0.7544782984254994
  0.4994142482120859  0.2462472528040849  0.2487378739510732
  0.5016619188625931  0.2464951887990771  0.7514138860326921
  0.5024243075348196  0.7495547978075733  0.2477157599857142
  0.5014955261688088  0.7509950883578786  0.7520815942701965
  0.2453236030675128  0.9945530319136167  0.2461529781691178
  0.2440507628777447  0.0032485817061613  0.7538961141146202
  0.2505887338708170  0.4979255804340668  0.2475357872097899
  0.2524994086139935  0.4991990331412979  0.7512739968628100
  0.7569518238438306  0.0030436335051109  0.2462791392309982
  0.7590904382615333  0.9945393978211412  0.7539438846647913
  0.7516806886666343  0.4976290740633141  0.2484956992205457
  0.7517407023843815  0.4973948047568075  0.7513485477512576
  0.2443120065915208  0.2421716355182843  0.9950092696883215
  0.2519689351122830  0.2472375416909751  0.4996976883926680
  0.2447965060834832  0.7530429814891144  0.0028727351491607
  0.2507734253424638  0.7471940326516078  0.5002591510447815
  0.7570949484373672  0.2437405000487577  0.0040627560277961
  0.7514768234504297  0.2466042905651935  0.5005896974913800
  0.7574162586230543  0.7524715789942791  0.9955241328762074
  0.7519072239814616  0.7479601486277386  0.4994611218116895
  0.1261992509362560  0.1239158252595614  0.3743095533796453
  0.1156573311313037  0.1121410876411665  0.8849499765139845
  0.1260457739133455  0.6226887267620869  0.3741833178240752
  0.1256979862166352  0.6242950512269605  0.8743333865130711
  0.6259077421753880  0.1222302383516579  0.3744513644425324
  0.6291614617097497  0.1223532416517292  0.8752046651945573
  0.6259519788805356  0.6230969124740172  0.3741950170843089
  0.6267085798179506  0.6241587892145630  0.8758857917076187
  0.1258871695280696  0.3712587901853074  0.1250107360238878
  0.1284594207600159  0.3732139621896126  0.6258043192754092
  0.1170456701662277  0.8813701426870021  0.1173624954195413
  0.1260920946085482  0.8719249824715265  0.6260208645123404
  0.6261166686971539  0.3712185709645596  0.1247021748577558
  0.6259725905705954  0.3724096016892671  0.6258432224527811
  0.6287944137548251  0.8739673327968108  0.1246951739598269
  0.6280086565317337  0.8738306851699473  0.6262122260316921
  0.3746206263250956  0.1214433541517967  0.1240086041716912
  0.3760917166738750  0.1219461568013260  0.6260913367159391
  0.3754976620667548  0.6248303256530928  0.1237837640720082
  0.3781384048132188  0.6238465165728094  0.6258717004221047
  0.8850631232021426  0.1149268949825964  0.1178221915115721
  0.8781581598099489  0.1237769608040907  0.6260086320343013
  0.8763452971776913  0.6236380523583288  0.1252207549278787
  0.8758797893957477  0.6226745746131082  0.6256908465291077
  0.3762790086402839  0.3735840648540170  0.3743084281144126
  0.3753455921379310  0.3711804759427113  0.8761212292950958
  0.3754036318593240  0.8725003498343995  0.3738963590885500
  0.3739848843253122  0.8746523064071354  0.8754463979475704
  0.8755631215675664  0.3731656648792992  0.3756334185522068
  0.8768028272880637  0.3713381506557778  0.8749856362741305
  0.8759966309893886  0.8726547559967157  0.3741535954951167
  0.8856849788290562  0.8818533655555562  0.8847615420761185
 
  0.00000000E+00  0.00000000E+00  0.00000000E+00
  0.00000000E+00  0.00000000E+00  0.00000000E+00
  0.00000000E+00  0.00000000E+00  0.00000000E+00
  0.00000000E+00  0.00000000E+00  0.00000000E+00
  0.00000000E+00  0.00000000E+00  0.00000000E+00
  0.00000000E+00  0.00000000E+00  0.00000000E+00
  0.00000000E+00  0.00000000E+00  0.00000000E+00
  0.00000000E+00  0.00000000E+00  0.00000000E+00
  0.00000000E+00  0.00000000E+00  0.00000000E+00
  0.00000000E+00  0.00000000E+00  0.00000000E+00
  0.00000000E+00  0.00000000E+00  0.00000000E+00
  0.00000000E+00  0.00000000E+00  0.00000000E+00
  0.00000000E+00  0.00000000E+00  0.00000000E+00
  0.00000000E+00  0.00000000E+00  0.00000000E+00
  0.00000000E+00  0.00000000E+00  0.00000000E+00
  0.00000000E+00  0.00000000E+00  0.00000000E+00
  0.00000000E+00  0.00000000E+00  0.00000000E+00
  0.00000000E+00  0.00000000E+00  0.00000000E+00
  0.00000000E+00  0.00000000E+00  0.00000000E+00
  0.00000000E+00  0.00000000E+00  0.00000000E+00
  0.00000000E+00  0.00000000E+00  0.00000000E+00
  0.00000000E+00  0.00000000E+00  0.00000000E+00
  0.00000000E+00  0.00000000E+00  0.00000000E+00
  0.00000000E+00  0.00000000E+00  0.00000000E+00
  0.00000000E+00  0.00000000E+00  0.00000000E+00
  0.00000000E+00  0.00000000E+00  0.00000000E+00
  0.00000000E+00  0.00000000E+00  0.00000000E+00
  0.00000000E+00  0.00000000E+00  0.00000000E+00
  0.00000000E+00  0.00000000E+00  0.00000000E+00
  0.00000000E+00  0.00000000E+00  0.00000000E+00
  0.00000000E+00  0.00000000E+00  0.00000000E+00
  0.00000000E+00  0.00000000E+00  0.00000000E+00
  0.00000000E+00  0.00000000E+00  0.00000000E+00
  0.00000000E+00  0.00000000E+00  0.00000000E+00
  0.00000000E+00  0.00000000E+00  0.00000000E+00
  0.00000000E+00  0.00000000E+00  0.00000000E+00
  0.00000000E+00  0.00000000E+00  0.00000000E+00
  0.00000000E+00  0.00000000E+00  0.00000000E+00
  0.00000000E+00  0.00000000E+00  0.00000000E+00
  0.00000000E+00  0.00000000E+00  0.00000000E+00
  0.00000000E+00  0.00000000E+00  0.00000000E+00
  0.00000000E+00  0.00000000E+00  0.00000000E+00
  0.00000000E+00  0.00000000E+00  0.00000000E+00
  0.00000000E+00  0.00000000E+00  0.00000000E+00
  0.00000000E+00  0.00000000E+00  0.00000000E+00
  0.00000000E+00  0.00000000E+00  0.00000000E+00
  0.00000000E+00  0.00000000E+00  0.00000000E+00
  0.00000000E+00  0.00000000E+00  0.00000000E+00
  0.00000000E+00  0.00000000E+00  0.00000000E+00
  0.00000000E+00  0.00000000E+00  0.00000000E+00
  0.00000000E+00  0.00000000E+00  0.00000000E+00
  0.00000000E+00  0.00000000E+00  0.00000000E+00
  0.00000000E+00  0.00000000E+00  0.00000000E+00
  0.00000000E+00  0.00000000E+00  0.00000000E+00
  0.00000000E+00  0.00000000E+00  0.00000000E+00
  0.00000000E+00  0.00000000E+00  0.00000000E+00
  0.00000000E+00  0.00000000E+00  0.00000000E+00
  0.00000000E+00  0.00000000E+00  0.00000000E+00
  0.00000000E+00  0.00000000E+00  0.00000000E+00
  0.00000000E+00  0.00000000E+00  0.00000000E+00
  0.00000000E+00  0.00000000E+00  0.00000000E+00
  0.00000000E+00  0.00000000E+00  0.00000000E+00
  0.00000000E+00  0.00000000E+00  0.00000000E+00
