20.0%_BDM_Distortion_vac_1_Cd[0. 0. 0.]_KV=-dNELECT=0
1.0
13.086768 0.000000 0.000000
0.000000 13.086768 0.000000
0.000000 0.000000 13.086768
Cd Te
31 32
direct
0.009489 -0.002641 0.512373 Cd
0.029095 0.495527 -0.004473 Cd
0.030168 0.514661 0.491032 Cd
0.510365 -0.008853 -0.008897 Cd
0.504622 -0.036550 0.467048 Cd
0.489258 0.480652 0.006003 Cd
0.482654 0.473020 0.527999 Cd
-0.004313 0.251290 0.222783 Cd
-0.010399 0.252119 0.728012 Cd
0.007177 0.738526 0.244428 Cd
-0.011495 0.785385 0.749742 Cd
0.479794 0.265713 0.226678 Cd
0.503990 0.212564 0.724627 Cd
0.503761 0.764107 0.253274 Cd
0.497791 0.744248 0.721755 Cd
0.236249 -0.008800 0.270194 Cd
0.256564 -0.033680 0.756191 Cd
0.242644 0.487069 0.261685 Cd
0.269695 0.517790 0.733968 Cd
0.744093 0.006328 0.268636 Cd
0.740846 -0.003547 0.728865 Cd
0.727149 0.515522 0.275909 Cd
0.748624 0.519171 0.756908 Cd
0.237676 0.256904 0.029382 Cd
0.249316 0.279890 0.449954 Cd
0.265701 0.751663 -0.005712 Cd
0.251753 0.712031 0.495804 Cd
0.756822 0.278233 -0.009901 Cd
0.734555 0.240415 0.517487 Cd
0.756280 0.739880 0.009805 Cd
0.751854 0.768504 0.486588 Cd
0.118741 0.117509 0.347042 Te
0.130657 0.129987 0.875098 Te
0.120519 0.597962 0.366964 Te
0.118453 0.609674 0.871919 Te
0.632719 0.161032 0.378335 Te
0.629920 0.123578 0.838345 Te
0.624493 0.626151 0.422056 Te
0.621325 0.630761 0.874337 Te
0.102674 0.396832 0.139364 Te
0.140111 0.357628 0.651798 Te
0.123220 0.861211 0.191845 Te
0.106078 0.864182 0.626904 Te
0.615382 0.345377 0.126310 Te
0.604707 0.384047 0.607436 Te
0.654609 0.860037 0.118848 Te
0.640541 0.851486 0.629345 Te
0.399971 0.094292 0.128527 Te
0.379965 0.139935 0.601370 Te
0.349775 0.634971 0.130673 Te
0.379785 0.631618 0.612009 Te
0.854437 0.155599 0.136354 Te
0.910642 0.134052 0.602242 Te
0.887542 0.606380 0.140036 Te
0.897133 0.609322 0.643404 Te
0.382885 0.390704 0.411235 Te
0.370312 0.360601 0.858007 Te
0.359415 0.873527 0.381517 Te
0.380286 0.890802 0.875248 Te
0.902767 0.369944 0.426964 Te
0.886952 0.358625 0.854542 Te
0.884217 0.870731 0.388640 Te
0.884040 0.873609 0.858823 Te
