-40.0%__num_neighbours=1__Vac_O_mult32  
   1.0000000000000000     
     0.0000000000000000   10.7468629999999994    0.0000000000000000
   -10.7468629999999994    0.0000000000000000    0.0000000000000000
     0.0000000000000000    0.0000000000000000    9.7925889999999995
   Sr   Cu   O 
    16    32    31
Direct
  0.0089294747978914  0.2324174990863092  0.2470238502754905
  0.5051734676230837  0.2451593987773329  0.2476360819706472
  0.0089443489428204  0.7589271153438633  0.2471191740326154
  0.5053579685655775  0.7462448681916697  0.2479571176231635
  0.2581650432479677 -0.0041109327227294  0.7496413221078408
  0.7559733778377725  0.9956693031176557  0.7485181903909226
  0.2580201356996303  0.4961129785011024  0.7512025593324855
  0.7538978545234505  0.4957095235386760  0.7477637325136066
  0.0084408867039695  0.4957068002450996  0.5033235622256210
  0.5054156954505914  0.4958356006518359  0.4958383199971498
  0.0071406492305668 -0.0042946262603550  0.5018786560596378
  0.5068945479960673 -0.0040388857320293  0.4993230028534696
  0.2567046379432700  0.2493519465637916 -0.0014390738058096
  0.7567138104583470  0.2479500123918836 -0.0027329523287911
  0.2570016679182621  0.7424706032539287 -0.0008340576781869
  0.7567988504354524  0.7431676898248617 -0.0024655833698810
  0.2524819634142701  0.3706182681984401  0.3736251629973330
  0.7665800265318413  0.3746466325012179  0.3653281399326165
  0.2571837235469158  0.8701154024711165  0.3759037049139420
  0.7572630951519979  0.8698302404237802  0.3740351534310460
  0.5069783251900277  0.1208815189249574  0.8736428839183807
  0.0072236726635096  0.1205594548286950  0.8743785956843436
  0.5068604121111000  0.6194692943870599  0.8732736505237600
  0.0052110946493799  0.6204116112996383  0.8720300028420892
  0.3649451947037502  0.4956426391782986  0.1316758779648974
  0.8592774315973507  0.4955133807228702  0.1610761794340197
  0.3814026507125806  0.9955557504091148  0.1242328112627630
  0.8802518259237676 -0.0043220896631635  0.1201921787170199
  0.6319992805001124  0.2464932120923433  0.6229849167004536
  0.1322385558099132  0.2464235164724153  0.6217724255851487
  0.6318654200329571  0.7451039705302996  0.6230996326844876
  0.1320157202742293  0.7450549099074162  0.6220706508907062
  0.2523874126783330  0.6205105607101545  0.3736724173110506
  0.7664457964358807  0.6172612192532597  0.3652080059298239
  0.2572328280631255  0.1211417533609015  0.3756804615758408
  0.7573828989245163  0.1221314772346849  0.3740188626671577
  0.5067002614086128  0.3710442353142460  0.8729212974008880
  0.0051262780998534  0.3705416077523169  0.8721531545938056
  0.5069392808704074  0.8695085973006397  0.8736488994662743
  0.0072735323747925  0.8702285634825729  0.8746377828140401
  0.0759769444367077  0.4955636344749796  0.0798960661136464
  0.6199916950601903  0.4955570370814366  0.1138151343701909
  0.1305607009922241 -0.0043821225517299  0.1180100705861385
  0.6310754611275630 -0.0044499482463202  0.1242038803535667
  0.3820066764063376  0.2469151663978112  0.6227962750497311
  0.8821421512294252  0.2463325627229627  0.6220899980084067
  0.3817724224375872  0.7448438577486116  0.6228889107437862
  0.8820304655104546  0.7450073132003933  0.6222433365928826
  0.4996799889825716  0.4956141136757977  0.2459807995892049
  0.0061663664332395 -0.0043106639862750  0.2461083602139489
  0.5063619001728250  0.9954974844457173  0.2497259521853682
  0.2564895484540494  0.2471569952042208  0.7483044129682933
  0.7575402788161378  0.2470762802808935  0.7479246848281159
  0.2563311572394774  0.7442400817630616  0.7486109576862173
  0.7573858948649991  0.7443933597792344  0.7480867969000476
  0.0072900642347393  0.2465250198644284 -0.0010367241493486
  0.5071854998857048  0.2465851392334241 -0.0012347425429219
  0.0073584811067533  0.7442024862911600 -0.0008929683899089
  0.5071444026265306  0.7439791257561537 -0.0009732444208461
  0.2566391750629388 -0.0043058176684150  0.5002566547516061
  0.7565252440224287 -0.0040493982679606  0.4981775231839878
  0.2511073458416163  0.4955346378347965  0.4992319639895876
  0.7620922316144348  0.4959972826553875  0.4947088240023916
  0.0067918084507124  0.2474656589422249  0.4959253466663498
  0.5074589340318111  0.2478306892496961  0.4970447683405626
  0.0067101009380840  0.7436141013552371  0.4960037684570145
  0.5072832951149903  0.7438049977709310  0.4972231959716649
  0.2579333497185807 -0.0045029110709267 -0.0027593161985723
  0.7545074047689431 -0.0041574375050472 -0.0029034213106281
  0.2405742423643976  0.4954961081726378  0.0049989593803465
  0.7549160570155072  0.4956788457890768  0.0012293574316020
  0.0028191040629103  0.4954663947469540  0.7457682667587129
  0.5052056190629083  0.4953969670342518  0.7462789898581537
  0.0062828480507964 -0.0046749926258077  0.7490187159138496
  0.5071059827058564  0.9952266839412861  0.7487409387146815
  0.2548971865117260  0.2453296830052234  0.2488972865917044
  0.7614809692643431  0.2458931500923852  0.2465560081244360
  0.2545665800660993  0.7458902095711227  0.2491671972434006
  0.7612273222694761  0.7460316019748156  0.2465902640007772

  0.00000000E+00  0.00000000E+00  0.00000000E+00
  0.00000000E+00  0.00000000E+00  0.00000000E+00
  0.00000000E+00  0.00000000E+00  0.00000000E+00
  0.00000000E+00  0.00000000E+00  0.00000000E+00
  0.00000000E+00  0.00000000E+00  0.00000000E+00
  0.00000000E+00  0.00000000E+00  0.00000000E+00
  0.00000000E+00  0.00000000E+00  0.00000000E+00
  0.00000000E+00  0.00000000E+00  0.00000000E+00
  0.00000000E+00  0.00000000E+00  0.00000000E+00
  0.00000000E+00  0.00000000E+00  0.00000000E+00
  0.00000000E+00  0.00000000E+00  0.00000000E+00
  0.00000000E+00  0.00000000E+00  0.00000000E+00
  0.00000000E+00  0.00000000E+00  0.00000000E+00
  0.00000000E+00  0.00000000E+00  0.00000000E+00
  0.00000000E+00  0.00000000E+00  0.00000000E+00
  0.00000000E+00  0.00000000E+00  0.00000000E+00
  0.00000000E+00  0.00000000E+00  0.00000000E+00
  0.00000000E+00  0.00000000E+00  0.00000000E+00
  0.00000000E+00  0.00000000E+00  0.00000000E+00
  0.00000000E+00  0.00000000E+00  0.00000000E+00
  0.00000000E+00  0.00000000E+00  0.00000000E+00
  0.00000000E+00  0.00000000E+00  0.00000000E+00
  0.00000000E+00  0.00000000E+00  0.00000000E+00
  0.00000000E+00  0.00000000E+00  0.00000000E+00
  0.00000000E+00  0.00000000E+00  0.00000000E+00
  0.00000000E+00  0.00000000E+00  0.00000000E+00
  0.00000000E+00  0.00000000E+00  0.00000000E+00
  0.00000000E+00  0.00000000E+00  0.00000000E+00
  0.00000000E+00  0.00000000E+00  0.00000000E+00
  0.00000000E+00  0.00000000E+00  0.00000000E+00
  0.00000000E+00  0.00000000E+00  0.00000000E+00
  0.00000000E+00  0.00000000E+00  0.00000000E+00
  0.00000000E+00  0.00000000E+00  0.00000000E+00
  0.00000000E+00  0.00000000E+00  0.00000000E+00
  0.00000000E+00  0.00000000E+00  0.00000000E+00
  0.00000000E+00  0.00000000E+00  0.00000000E+00
  0.00000000E+00  0.00000000E+00  0.00000000E+00
  0.00000000E+00  0.00000000E+00  0.00000000E+00
  0.00000000E+00  0.00000000E+00  0.00000000E+00
  0.00000000E+00  0.00000000E+00  0.00000000E+00
  0.00000000E+00  0.00000000E+00  0.00000000E+00
  0.00000000E+00  0.00000000E+00  0.00000000E+00
  0.00000000E+00  0.00000000E+00  0.00000000E+00
  0.00000000E+00  0.00000000E+00  0.00000000E+00
  0.00000000E+00  0.00000000E+00  0.00000000E+00
  0.00000000E+00  0.00000000E+00  0.00000000E+00
  0.00000000E+00  0.00000000E+00  0.00000000E+00
  0.00000000E+00  0.00000000E+00  0.00000000E+00
  0.00000000E+00  0.00000000E+00  0.00000000E+00
  0.00000000E+00  0.00000000E+00  0.00000000E+00
  0.00000000E+00  0.00000000E+00  0.00000000E+00
  0.00000000E+00  0.00000000E+00  0.00000000E+00
  0.00000000E+00  0.00000000E+00  0.00000000E+00
  0.00000000E+00  0.00000000E+00  0.00000000E+00
  0.00000000E+00  0.00000000E+00  0.00000000E+00
  0.00000000E+00  0.00000000E+00  0.00000000E+00
  0.00000000E+00  0.00000000E+00  0.00000000E+00
  0.00000000E+00  0.00000000E+00  0.00000000E+00
  0.00000000E+00  0.00000000E+00  0.00000000E+00
  0.00000000E+00  0.00000000E+00  0.00000000E+00
  0.00000000E+00  0.00000000E+00  0.00000000E+00
  0.00000000E+00  0.00000000E+00  0.00000000E+00
  0.00000000E+00  0.00000000E+00  0.00000000E+00
  0.00000000E+00  0.00000000E+00  0.00000000E+00
  0.00000000E+00  0.00000000E+00  0.00000000E+00
  0.00000000E+00  0.00000000E+00  0.00000000E+00
  0.00000000E+00  0.00000000E+00  0.00000000E+00
  0.00000000E+00  0.00000000E+00  0.00000000E+00
  0.00000000E+00  0.00000000E+00  0.00000000E+00
  0.00000000E+00  0.00000000E+00  0.00000000E+00
  0.00000000E+00  0.00000000E+00  0.00000000E+00
  0.00000000E+00  0.00000000E+00  0.00000000E+00
  0.00000000E+00  0.00000000E+00  0.00000000E+00
  0.00000000E+00  0.00000000E+00  0.00000000E+00
  0.00000000E+00  0.00000000E+00  0.00000000E+00
  0.00000000E+00  0.00000000E+00  0.00000000E+00
  0.00000000E+00  0.00000000E+00  0.00000000E+00
  0.00000000E+00  0.00000000E+00  0.00000000E+00
  0.00000000E+00  0.00000000E+00  0.00000000E+00
