40.0%_BDM_Distortion_vac_1_Cd[0. 0. 0.]_
   1.00000000000000     
    13.0867679999999993    0.0000000000000000    0.0000000000000000
     0.0000000000000000   13.0867679999999993    0.0000000000000000
     0.0000000000000000    0.0000000000000000   13.0867679999999993
   Cd   Te
    31    32
Direct
  0.0022293895058583  0.9966510279969405  0.4996796350293086
  0.0025676540013841  0.4972491175236231 -0.0009915205710804
  0.0019154133522290  0.4972759975051796  0.5004091642842519
  0.5027149270346369  0.9971507574764220 -0.0008642866183730
  0.5020818842363002  0.9967702302735021  0.4996183725918444
  0.5021887742993207  0.4966575167066038 -0.0004159976220562
  0.5024095570302719  0.4972163988315287  0.4992074764926921
  0.9950663287673037  0.2429509327570865  0.2450158834885987
  0.0092963100886893  0.2411503512702729  0.7563322167972280
  0.0058271378298997  0.7515874189481054  0.2442085991746429
  0.9962681408794877  0.7532466188279633  0.7562063593639057
  0.5012345070226990  0.2457853152833998  0.2492420571598071
  0.5020987380378845  0.2456771303521126  0.7507446249770261
  0.5026566675340844  0.7488261474066886  0.2480288812218361
  0.5025704639173253  0.7479967201382535  0.7499736380629108
  0.2470879800354338 -0.0068967916672279  0.2454059913197759
  0.2466244297901333  0.0035829964912332  0.7557683425478585
  0.2503738934595801  0.4961200521219530  0.2488259764260933
  0.2511238390969127  0.4967842387262953  0.7509183936672775
  0.7574007942917496  0.0058015617606867  0.2441914974853491
  0.7580106958323907  0.9932336600165594  0.7557488572194950
  0.7524003116309769  0.4975521870846841  0.2489738453954924
  0.7536263369106493  0.4969645405496807  0.7511944210726440
  0.2463745294307703  0.2414875714187625 -0.0065098915988154
  0.2510956138110492  0.2458281136664890  0.4997940857812778
  0.2486637598529685  0.7517788444984600  0.0050425795798245
  0.2503824507627064  0.7473722585941392  0.5011555575394893
  0.7584534974213276  0.2420912161742041  0.0077668548918397
  0.7529100303439440  0.2466628561701650  0.5015931085922182
  0.7567113448704973  0.7530110875029196 -0.0060190897893702
  0.7538313065162614  0.7491298104255849  0.4993158202098142
  0.1263719789554951  0.1221474704422720  0.3736230015671079
  0.1181586664965691  0.1113622931636160  0.8853563483415927
  0.1261611691639315  0.6224671273078840  0.3742031646214009
  0.1277382641453807  0.6238003773112692  0.8746800173580291
  0.6273409853266453  0.1222525754551394  0.3756067489793115
  0.6294147035342544  0.1228218380175427  0.8753844996595916
  0.6272436040058816  0.6232268675957372  0.3749332318078704
  0.6275221274406796  0.6225711136315997  0.8754889665776315
  0.1264777727544619  0.3705122837430582  0.1245733117940718
  0.1266336255213351  0.3711216694537405  0.6253323208090832
  0.1203160815837912  0.8787268989898678  0.1172946031918723
  0.1267094561592899  0.8723131830796447  0.6265821305942937
  0.6269052837182507  0.3711774566521973  0.1250716184787967
  0.6267387170488058  0.3721863885244950  0.6258058078587564
  0.6289369947398827  0.8734021273408802  0.1251626131588352
  0.6286569556062404  0.8732487096246667  0.6256593549412502
  0.3758255788223798  0.1213518105240383  0.1247129109026960
  0.3766046795690817  0.1210544210140508  0.6251833161039869
  0.3767560509323460  0.6215892422338017  0.1250221094937357
  0.3768664419695396  0.6214186148850800  0.6249929956560125
  0.8878843969244792  0.1129050609576974  0.1160056452259347
  0.8781944162620771  0.1220200066094989  0.6265153941622544
  0.8763490372412928  0.6226588906976394  0.1239792676650428
  0.8777278185758652  0.6234122074193893  0.6258683097401032
  0.3765578127176096  0.3715675314280923  0.3749670566755892
  0.3766094065714064  0.3710643392032235  0.8752200860797091
  0.3758844720040084  0.8716503755829367  0.3747471236523722
  0.3764458001459384  0.8721621265878040  0.8741720430081712
  0.8765323539439495  0.3720732682189953  0.3754839514513840
  0.8775835517661086  0.3698725640336403  0.8750056338412890
  0.8768075984428927  0.8733153602340117  0.3726116976885669
  0.8858984903153794  0.8811569152042286  0.8848772647408288
 
  0.00000000E+00  0.00000000E+00  0.00000000E+00
  0.00000000E+00  0.00000000E+00  0.00000000E+00
  0.00000000E+00  0.00000000E+00  0.00000000E+00
  0.00000000E+00  0.00000000E+00  0.00000000E+00
  0.00000000E+00  0.00000000E+00  0.00000000E+00
  0.00000000E+00  0.00000000E+00  0.00000000E+00
  0.00000000E+00  0.00000000E+00  0.00000000E+00
  0.00000000E+00  0.00000000E+00  0.00000000E+00
  0.00000000E+00  0.00000000E+00  0.00000000E+00
  0.00000000E+00  0.00000000E+00  0.00000000E+00
  0.00000000E+00  0.00000000E+00  0.00000000E+00
  0.00000000E+00  0.00000000E+00  0.00000000E+00
  0.00000000E+00  0.00000000E+00  0.00000000E+00
  0.00000000E+00  0.00000000E+00  0.00000000E+00
  0.00000000E+00  0.00000000E+00  0.00000000E+00
  0.00000000E+00  0.00000000E+00  0.00000000E+00
  0.00000000E+00  0.00000000E+00  0.00000000E+00
  0.00000000E+00  0.00000000E+00  0.00000000E+00
  0.00000000E+00  0.00000000E+00  0.00000000E+00
  0.00000000E+00  0.00000000E+00  0.00000000E+00
  0.00000000E+00  0.00000000E+00  0.00000000E+00
  0.00000000E+00  0.00000000E+00  0.00000000E+00
  0.00000000E+00  0.00000000E+00  0.00000000E+00
  0.00000000E+00  0.00000000E+00  0.00000000E+00
  0.00000000E+00  0.00000000E+00  0.00000000E+00
  0.00000000E+00  0.00000000E+00  0.00000000E+00
  0.00000000E+00  0.00000000E+00  0.00000000E+00
  0.00000000E+00  0.00000000E+00  0.00000000E+00
  0.00000000E+00  0.00000000E+00  0.00000000E+00
  0.00000000E+00  0.00000000E+00  0.00000000E+00
  0.00000000E+00  0.00000000E+00  0.00000000E+00
  0.00000000E+00  0.00000000E+00  0.00000000E+00
  0.00000000E+00  0.00000000E+00  0.00000000E+00
  0.00000000E+00  0.00000000E+00  0.00000000E+00
  0.00000000E+00  0.00000000E+00  0.00000000E+00
  0.00000000E+00  0.00000000E+00  0.00000000E+00
  0.00000000E+00  0.00000000E+00  0.00000000E+00
  0.00000000E+00  0.00000000E+00  0.00000000E+00
  0.00000000E+00  0.00000000E+00  0.00000000E+00
  0.00000000E+00  0.00000000E+00  0.00000000E+00
  0.00000000E+00  0.00000000E+00  0.00000000E+00
  0.00000000E+00  0.00000000E+00  0.00000000E+00
  0.00000000E+00  0.00000000E+00  0.00000000E+00
  0.00000000E+00  0.00000000E+00  0.00000000E+00
  0.00000000E+00  0.00000000E+00  0.00000000E+00
  0.00000000E+00  0.00000000E+00  0.00000000E+00
  0.00000000E+00  0.00000000E+00  0.00000000E+00
  0.00000000E+00  0.00000000E+00  0.00000000E+00
  0.00000000E+00  0.00000000E+00  0.00000000E+00
  0.00000000E+00  0.00000000E+00  0.00000000E+00
  0.00000000E+00  0.00000000E+00  0.00000000E+00
  0.00000000E+00  0.00000000E+00  0.00000000E+00
  0.00000000E+00  0.00000000E+00  0.00000000E+00
  0.00000000E+00  0.00000000E+00  0.00000000E+00
  0.00000000E+00  0.00000000E+00  0.00000000E+00
  0.00000000E+00  0.00000000E+00  0.00000000E+00
  0.00000000E+00  0.00000000E+00  0.00000000E+00
  0.00000000E+00  0.00000000E+00  0.00000000E+00
  0.00000000E+00  0.00000000E+00  0.00000000E+00
  0.00000000E+00  0.00000000E+00  0.00000000E+00
  0.00000000E+00  0.00000000E+00  0.00000000E+00
  0.00000000E+00  0.00000000E+00  0.00000000E+00
  0.00000000E+00  0.00000000E+00  0.00000000E+00
