-60.0%_Bond__vac_1_Cd[0. 0. 0.]_-dNELECT
   1.0000000000000000     
    13.0867679999999993    0.0000000000000000    0.0000000000000000
     0.0000000000000000   13.0867679999999993    0.0000000000000000
     0.0000000000000000    0.0000000000000000   13.0867679999999993
   Cd   Te
    31    32
Direct
  0.0014403846070577  0.0152341826280604  0.4960600473735149
  0.0018443102488570  0.5161087673464303 -0.0040398656877614
  0.0015173721494156  0.4964250054125902  0.4953254437891685
  0.5013965138531643  0.0154055666281311  0.9960900556103989
  0.5008707637154415  0.0042688380005810  0.4967098095394830
  0.5019297749209065  0.4965367411734729  0.9961961598649658
  0.5011816196576182  0.5052360495072741  0.4962550218762460
  0.0097256803288132  0.2588843670684856  0.2325439920955485
  0.9934737704436254  0.2595145416345934  0.7583808795406322
  0.0104840928023871  0.7562773404319634  0.2390527514483766
  0.9917584789845881  0.7556386659098753  0.7522046041566324
  0.4989350487751372  0.2530965119881518  0.2414020457939302
  0.5045829259796427  0.2528806880786343  0.7506559636090642
  0.5019135291897806  0.7531353182981475  0.2444384276255189
  0.5011363135762754  0.7527562330478794  0.7476718240721512
  0.2475230160573179  0.9919913424399383  0.2415917641367702
  0.2757489651077736 -0.0265191154063617  0.7216805099696171
  0.2590663209097625  0.5124076045493998  0.2534928422440158
  0.2505392672690048  0.5019839490200834  0.7463711371193417
  0.7260448863867603  0.9738564165908449  0.2715144752299383
  0.7556730891767807 -0.0083993386223779  0.7500430401772001
  0.7524206273400755  0.5017100648850564  0.2452279385779717
  0.7440854056544617  0.5125988309812539  0.7383973637984081
  0.2391319827342607  0.2597507853427566  0.0036158825273340
  0.2470439433088195  0.2529097958469300  0.4927321550367870
  0.2450520367598765  0.7556671657980034  0.0050520638657734
  0.2497118662859338  0.7531452217660791  0.4961416977697053
  0.7649528404420212  0.2591833818949886  0.9872815599640190
  0.7559774408405187  0.2530561390294609  0.4990046826103229
  0.7582194236024521  0.7562580021949680 -0.0130267429954571
  0.7525348794489625  0.7529998717978174  0.4952309400330630
  0.1267711274722002  0.1294927829142282  0.3639874049042175
  0.0765905099580975  0.1375918342131964  0.9208111775417049
  0.1243339845555285  0.6285449176948734  0.3743685655284396
  0.1293413670756466  0.6330374401710253  0.8677234146713131
  0.6258235060961806  0.1312255930325242  0.3717935409091480
  0.6335747728050893  0.1294523359636111  0.8706169801270902
  0.6273308485434317  0.6280145972422251  0.3697569884554419
  0.6230049291539947  0.6284441443691878  0.8731707511222573
  0.1305157146332279  0.3983324280291968  0.1247125103827035
  0.1245236563729906  0.3722924011783992  0.6256391531631711
  0.1182345735541996  0.8861302435220555  0.1121698878701599
  0.1200352077928987  0.8780115374549784  0.6185144011195021
  0.6322076276980355  0.3720190723804376  0.1188263948361749
  0.6248208477820444  0.3774996887974887  0.6194550426992863
  0.6241210138257114  0.8784923264956245  0.1149707556104810
  0.6252322931717114  0.8772552255576598  0.6199682972005631
  0.3697044823722491  0.1300357431183029  0.1212954473139594
  0.3759251735104058  0.1311750749197002  0.6215187054673312
  0.3803477747313224  0.6282557854800198  0.1190175064313271
  0.3751962910036126  0.6286632862857068  0.6219565423725634
  0.9280720835781968  0.1371540915411635  0.0691178513758234
  0.8760115843401549  0.1296166616661844  0.6277986368567018
  0.8736345858029578  0.6327844971110140  0.1237690047609182
  0.8783327737423071  0.6282347468782673  0.6165775813316706
  0.3782508402144468  0.3773440378371912  0.3725446594917830
  0.3716589123467812  0.3728260524197811  0.8726532021491246
  0.3775256475403303  0.8775129210795448  0.3720747653065223
  0.3790591093823327  0.8780354899954231  0.8773111215633390
  0.8784948656435908  0.3718252569270138  0.3654808442359459
  0.8730321893935790  0.3987336385309900  0.8668683936722589
  0.8825199719774188  0.8783062230269130  0.3735040748212332
  0.8852001633718551  0.8861049889029589  0.8794279259351807

  0.00000000E+00  0.00000000E+00  0.00000000E+00
  0.00000000E+00  0.00000000E+00  0.00000000E+00
  0.00000000E+00  0.00000000E+00  0.00000000E+00
  0.00000000E+00  0.00000000E+00  0.00000000E+00
  0.00000000E+00  0.00000000E+00  0.00000000E+00
  0.00000000E+00  0.00000000E+00  0.00000000E+00
  0.00000000E+00  0.00000000E+00  0.00000000E+00
  0.00000000E+00  0.00000000E+00  0.00000000E+00
  0.00000000E+00  0.00000000E+00  0.00000000E+00
  0.00000000E+00  0.00000000E+00  0.00000000E+00
  0.00000000E+00  0.00000000E+00  0.00000000E+00
  0.00000000E+00  0.00000000E+00  0.00000000E+00
  0.00000000E+00  0.00000000E+00  0.00000000E+00
  0.00000000E+00  0.00000000E+00  0.00000000E+00
  0.00000000E+00  0.00000000E+00  0.00000000E+00
  0.00000000E+00  0.00000000E+00  0.00000000E+00
  0.00000000E+00  0.00000000E+00  0.00000000E+00
  0.00000000E+00  0.00000000E+00  0.00000000E+00
  0.00000000E+00  0.00000000E+00  0.00000000E+00
  0.00000000E+00  0.00000000E+00  0.00000000E+00
  0.00000000E+00  0.00000000E+00  0.00000000E+00
  0.00000000E+00  0.00000000E+00  0.00000000E+00
  0.00000000E+00  0.00000000E+00  0.00000000E+00
  0.00000000E+00  0.00000000E+00  0.00000000E+00
  0.00000000E+00  0.00000000E+00  0.00000000E+00
  0.00000000E+00  0.00000000E+00  0.00000000E+00
  0.00000000E+00  0.00000000E+00  0.00000000E+00
  0.00000000E+00  0.00000000E+00  0.00000000E+00
  0.00000000E+00  0.00000000E+00  0.00000000E+00
  0.00000000E+00  0.00000000E+00  0.00000000E+00
  0.00000000E+00  0.00000000E+00  0.00000000E+00
  0.00000000E+00  0.00000000E+00  0.00000000E+00
  0.00000000E+00  0.00000000E+00  0.00000000E+00
  0.00000000E+00  0.00000000E+00  0.00000000E+00
  0.00000000E+00  0.00000000E+00  0.00000000E+00
  0.00000000E+00  0.00000000E+00  0.00000000E+00
  0.00000000E+00  0.00000000E+00  0.00000000E+00
  0.00000000E+00  0.00000000E+00  0.00000000E+00
  0.00000000E+00  0.00000000E+00  0.00000000E+00
  0.00000000E+00  0.00000000E+00  0.00000000E+00
  0.00000000E+00  0.00000000E+00  0.00000000E+00
  0.00000000E+00  0.00000000E+00  0.00000000E+00
  0.00000000E+00  0.00000000E+00  0.00000000E+00
  0.00000000E+00  0.00000000E+00  0.00000000E+00
  0.00000000E+00  0.00000000E+00  0.00000000E+00
  0.00000000E+00  0.00000000E+00  0.00000000E+00
  0.00000000E+00  0.00000000E+00  0.00000000E+00
  0.00000000E+00  0.00000000E+00  0.00000000E+00
  0.00000000E+00  0.00000000E+00  0.00000000E+00
  0.00000000E+00  0.00000000E+00  0.00000000E+00
  0.00000000E+00  0.00000000E+00  0.00000000E+00
  0.00000000E+00  0.00000000E+00  0.00000000E+00
  0.00000000E+00  0.00000000E+00  0.00000000E+00
  0.00000000E+00  0.00000000E+00  0.00000000E+00
  0.00000000E+00  0.00000000E+00  0.00000000E+00
  0.00000000E+00  0.00000000E+00  0.00000000E+00
  0.00000000E+00  0.00000000E+00  0.00000000E+00
  0.00000000E+00  0.00000000E+00  0.00000000E+00
  0.00000000E+00  0.00000000E+00  0.00000000E+00
  0.00000000E+00  0.00000000E+00  0.00000000E+00
  0.00000000E+00  0.00000000E+00  0.00000000E+00
  0.00000000E+00  0.00000000E+00  0.00000000E+00
  0.00000000E+00  0.00000000E+00  0.00000000E+00
