-60.0% N(Distort)=2 ~[0.4,0.4,0.4]      
   1.0000000000000000     
    10.7313600000000005    0.0000000000000000    0.0000000000000000
     0.0000000000000000   10.7313600000000005    0.0000000000000000
     0.0000000000000000    0.0000000000000000   10.7313600000000005
   Ce   O 
    32    63
Direct
  0.5007114741885422  0.0011378881796786 -0.0027652156036737
  0.7526892324380103  0.2531206648101251 -0.0028161734352005
  0.7526361598297401  0.0011480220906264  0.2491475617149911
  0.0012416046247665  0.0023108404565051  0.9996297555152652
  0.2507586700108372  0.2531387203431695 -0.0000730414639602
  0.5013686898582630  0.5037901196140961 -0.0006439318915295
  0.7507697879153473  0.7518169236639153  0.9990686767866482
  0.2502396196235348  0.0049902186966669  0.2486017172268566
  0.5105875704309598  0.2461087361253605  0.2393768307930393
  0.7506280075099822  0.5038117175963499  0.2485373160284541
  0.5013403506420995  0.0050418030851744  0.4996362190056490
  0.7501153654954142  0.2532105634394760  0.4991489484716475
  0.7502513636417170  0.0023406763348996  0.7486240246591358
  0.0003719180455114  0.5024835452478019 -0.0011338452080629
  0.2513923203843635  0.7534713408020458 -0.0011831655027829
  0.0015881992454736  0.2532112707076387  0.2491237302882375
  0.2455017972807872  0.5109841049022711  0.2438675662439831
  0.5011475852457967  0.7541588827967560  0.2487443250982829
 -0.0010778757637347  0.0011417040431053  0.4990686688685408
  0.2411451410930898  0.2461129742972601  0.5088582421563277
  0.5060629662794209  0.5109547879091112  0.5044155520718073
  0.7510928702713435  0.7534787677602927  0.4984689608637531
  0.2508541209557323  0.0011174667530437  0.7509732914065379
  0.5008141089012049  0.2532426710393152  0.7483517028073301
  0.7510412959964338  0.5025146799822914  0.7494945523715557
  0.0003615075165765  0.7534571110320182  0.2499248446133099
  0.0009685111866929  0.5038121755114833  0.4998784029592482
  0.2503404101359530  0.7541861574228081  0.4996020473094751
 -0.0011245432596273  0.2530774024376092  0.7510668092997377
  0.2500604194818265  0.5037851802514172  0.7490858886645836
  0.4999650983433832  0.7534524176435676  0.7495431658176112
  0.0005858485415326  0.7518035920153739  0.7492892193777927
  0.8758842952363750  0.3771446407041276  0.3742701068334788
  0.1197344993340199  0.6337772036596914  0.3780820350365897
  0.1218330183336718  0.3762796104289656  0.6281708855308451
  0.6320883766342263  0.6336416359702453  0.3704377583746918
  0.8756714813109617  0.8774372834155463  0.3741990175645725
  0.1239195957851852  0.1250835091348274  0.3765789649467757
  0.6302930400434928  0.3756088833616752  0.6284504115860924
  0.8771892986939336  0.6271994788912418  0.6239746173696661
  0.1253322164545526  0.8765899684376568  0.6245788769280326
  0.8756479831355665  0.3770794463093452  0.8742391381971355
  0.1258436406432510  0.6271192376188174  0.8728010813181434
  0.1214554751259680  0.3755075820587030  0.1197589824311041
  0.3755494852402779  0.8885200811875097  0.3743283836460298
  0.6278626637650103  0.1250995074206139  0.3715132492069491
  0.3718541803816662  0.6336679340195560  0.6302771913266456
  0.6249477498241000  0.8813754490522955  0.6233982627182088
  0.8735018126852224  0.1275698907784019  0.6238832272689958
  0.3756071339233015  0.3770812744828096  0.8744465998187825
  0.6253943649218547  0.6270832753509419  0.8758001742545036
  0.8756181087426297  0.8772250541415307  0.8742388059027125
  0.1260352292664515  0.1274932520891038  0.8764727835296623
  0.6298506178262564  0.3763451369462023  0.1200030715599599
  0.8741088506965191  0.6270775411387658  0.1244303301929471
  0.1264830485703013  0.8812962864907269  0.1249106101676669
  0.3734546197711098  0.1250424934906991  0.6259465810291158
  0.3756822640481899  0.8774197170013502  0.8742063803678981
  0.6254932072241456  0.1277661009748929  0.8717159227368425
  0.3794768153689047  0.6336674317229962  0.1178842618401046
  0.6260823076031544  0.8767496371050765  0.1237820832281411
  0.8781629981036740  0.1277877385883887  0.1243943148547585
  0.3783250070538615  0.1250234796714264  0.1221229814624641
  0.6289144215419225  0.1255750676099955  0.1209346241044384
  0.8759392214988102  0.3772916452168178  0.1246100551374834
  0.8758549561367412  0.1273101605729835  0.3741845585598738
  0.1279011155013140  0.1290892697366715  0.1262322111214926
  0.3810022905068348  0.3744885232142752  0.1349384481992819
  0.6256550244787986  0.6262066840151004  0.1241897175974026
  0.8759933181361631  0.8774126600033968  0.1240262068566654
  0.3759736126246777  0.1551740202159113  0.3741444162326348
  0.6153798191547400  0.3745688851844164  0.3689094830189612
  0.8757820263320489  0.6264435484558082  0.3743483699751559
  0.6237110024770979  0.1291678329347669  0.6219070338868046
  0.8757648728402471  0.3772845655930297  0.6238300994899244
  0.8757563734704109  0.1269894517627539  0.8742372076318160
  0.1217239459082940  0.6330423697715365  0.1204417632444905
  0.3756148697465443  0.8795611922797762  0.1243555635225655
  0.1364768732906357  0.3745613627228660  0.3793074428854409
  0.3759026277512750  0.6325845562530250  0.3741233923968197
  0.6254329262613499  0.8795531751851838  0.3743452130392102
  0.1228171384472137  0.1255658867997377  0.6271133352713257
  0.3707569792649424  0.3745240015677690  0.6139654100832623
  0.6294255606493376  0.6330509970651279  0.6281375534707773
  0.8754934467104131  0.8773912538618028  0.6243105375466202
  0.3757530624326756  0.1272876751607066  0.8741185362071303
  0.6251664846145730  0.3773264389540394  0.8739945573816602
  0.8756434996366008  0.6271480226377796  0.8742833823008090
  0.1258813451939999  0.8796103473142048  0.3738849732494822
  0.1253904352476305  0.6260519014324256  0.6245184301079749
  0.3760621483377268  0.8795428293126524  0.6239132879237175
  0.1259626140190623  0.3771947578050771  0.8743367889389495
  0.3756263262741966  0.6264471344417316  0.8742117805802984
  0.6257751277698965  0.8774011211279221  0.8739020272895013
  0.1255412218292182  0.8773352599632083  0.8744412846033208

  0.00000000E+00  0.00000000E+00  0.00000000E+00
  0.00000000E+00  0.00000000E+00  0.00000000E+00
  0.00000000E+00  0.00000000E+00  0.00000000E+00
  0.00000000E+00  0.00000000E+00  0.00000000E+00
  0.00000000E+00  0.00000000E+00  0.00000000E+00
  0.00000000E+00  0.00000000E+00  0.00000000E+00
  0.00000000E+00  0.00000000E+00  0.00000000E+00
  0.00000000E+00  0.00000000E+00  0.00000000E+00
  0.00000000E+00  0.00000000E+00  0.00000000E+00
  0.00000000E+00  0.00000000E+00  0.00000000E+00
  0.00000000E+00  0.00000000E+00  0.00000000E+00
  0.00000000E+00  0.00000000E+00  0.00000000E+00
  0.00000000E+00  0.00000000E+00  0.00000000E+00
  0.00000000E+00  0.00000000E+00  0.00000000E+00
  0.00000000E+00  0.00000000E+00  0.00000000E+00
  0.00000000E+00  0.00000000E+00  0.00000000E+00
  0.00000000E+00  0.00000000E+00  0.00000000E+00
  0.00000000E+00  0.00000000E+00  0.00000000E+00
  0.00000000E+00  0.00000000E+00  0.00000000E+00
  0.00000000E+00  0.00000000E+00  0.00000000E+00
  0.00000000E+00  0.00000000E+00  0.00000000E+00
  0.00000000E+00  0.00000000E+00  0.00000000E+00
  0.00000000E+00  0.00000000E+00  0.00000000E+00
  0.00000000E+00  0.00000000E+00  0.00000000E+00
  0.00000000E+00  0.00000000E+00  0.00000000E+00
  0.00000000E+00  0.00000000E+00  0.00000000E+00
  0.00000000E+00  0.00000000E+00  0.00000000E+00
  0.00000000E+00  0.00000000E+00  0.00000000E+00
  0.00000000E+00  0.00000000E+00  0.00000000E+00
  0.00000000E+00  0.00000000E+00  0.00000000E+00
  0.00000000E+00  0.00000000E+00  0.00000000E+00
  0.00000000E+00  0.00000000E+00  0.00000000E+00
  0.00000000E+00  0.00000000E+00  0.00000000E+00
  0.00000000E+00  0.00000000E+00  0.00000000E+00
  0.00000000E+00  0.00000000E+00  0.00000000E+00
  0.00000000E+00  0.00000000E+00  0.00000000E+00
  0.00000000E+00  0.00000000E+00  0.00000000E+00
  0.00000000E+00  0.00000000E+00  0.00000000E+00
  0.00000000E+00  0.00000000E+00  0.00000000E+00
  0.00000000E+00  0.00000000E+00  0.00000000E+00
  0.00000000E+00  0.00000000E+00  0.00000000E+00
  0.00000000E+00  0.00000000E+00  0.00000000E+00
  0.00000000E+00  0.00000000E+00  0.00000000E+00
  0.00000000E+00  0.00000000E+00  0.00000000E+00
  0.00000000E+00  0.00000000E+00  0.00000000E+00
  0.00000000E+00  0.00000000E+00  0.00000000E+00
  0.00000000E+00  0.00000000E+00  0.00000000E+00
  0.00000000E+00  0.00000000E+00  0.00000000E+00
  0.00000000E+00  0.00000000E+00  0.00000000E+00
  0.00000000E+00  0.00000000E+00  0.00000000E+00
  0.00000000E+00  0.00000000E+00  0.00000000E+00
  0.00000000E+00  0.00000000E+00  0.00000000E+00
  0.00000000E+00  0.00000000E+00  0.00000000E+00
  0.00000000E+00  0.00000000E+00  0.00000000E+00
  0.00000000E+00  0.00000000E+00  0.00000000E+00
  0.00000000E+00  0.00000000E+00  0.00000000E+00
  0.00000000E+00  0.00000000E+00  0.00000000E+00
  0.00000000E+00  0.00000000E+00  0.00000000E+00
  0.00000000E+00  0.00000000E+00  0.00000000E+00
  0.00000000E+00  0.00000000E+00  0.00000000E+00
  0.00000000E+00  0.00000000E+00  0.00000000E+00
  0.00000000E+00  0.00000000E+00  0.00000000E+00
  0.00000000E+00  0.00000000E+00  0.00000000E+00
  0.00000000E+00  0.00000000E+00  0.00000000E+00
  0.00000000E+00  0.00000000E+00  0.00000000E+00
  0.00000000E+00  0.00000000E+00  0.00000000E+00
  0.00000000E+00  0.00000000E+00  0.00000000E+00
  0.00000000E+00  0.00000000E+00  0.00000000E+00
  0.00000000E+00  0.00000000E+00  0.00000000E+00
  0.00000000E+00  0.00000000E+00  0.00000000E+00
  0.00000000E+00  0.00000000E+00  0.00000000E+00
  0.00000000E+00  0.00000000E+00  0.00000000E+00
  0.00000000E+00  0.00000000E+00  0.00000000E+00
  0.00000000E+00  0.00000000E+00  0.00000000E+00
  0.00000000E+00  0.00000000E+00  0.00000000E+00
  0.00000000E+00  0.00000000E+00  0.00000000E+00
  0.00000000E+00  0.00000000E+00  0.00000000E+00
  0.00000000E+00  0.00000000E+00  0.00000000E+00
  0.00000000E+00  0.00000000E+00  0.00000000E+00
  0.00000000E+00  0.00000000E+00  0.00000000E+00
  0.00000000E+00  0.00000000E+00  0.00000000E+00
  0.00000000E+00  0.00000000E+00  0.00000000E+00
  0.00000000E+00  0.00000000E+00  0.00000000E+00
  0.00000000E+00  0.00000000E+00  0.00000000E+00
  0.00000000E+00  0.00000000E+00  0.00000000E+00
  0.00000000E+00  0.00000000E+00  0.00000000E+00
  0.00000000E+00  0.00000000E+00  0.00000000E+00
  0.00000000E+00  0.00000000E+00  0.00000000E+00
  0.00000000E+00  0.00000000E+00  0.00000000E+00
  0.00000000E+00  0.00000000E+00  0.00000000E+00
  0.00000000E+00  0.00000000E+00  0.00000000E+00
  0.00000000E+00  0.00000000E+00  0.00000000E+00
  0.00000000E+00  0.00000000E+00  0.00000000E+00
  0.00000000E+00  0.00000000E+00  0.00000000E+00
  0.00000000E+00  0.00000000E+00  0.00000000E+00
