&CONTROL
   calculation      = 'relax'
   title            = 'espresso'
   nstep            = 300
   tstress          = .false.
   tprnfor          = .true.
/
&SYSTEM
   ibrav            = 0
   tot_charge       = 0
   ecutwfc          = 30.0
   nosym            = .true.
   occupations      = 'smearing'
   degauss          = 0.0015
   nspin            = 2
   input_dft        = 'HSE'
   exx_fraction     = 0.25
   starting_magnetization(1) = 0.0
   starting_magnetization(2) = 0.0
   ntyp             = 2
   nat              = 63
/
&ELECTRONS
   ecutwfc          = 33.0
/
&IONS
/
&CELL
/

ATOMIC_SPECIES
Cd  112.414 Cd_pbe_v1.uspp.F.UPF
Te  127.6 Te.pbe-n-rrkjus_psl.1.0.0.UPF

K_POINTS automatic
1 1 1  0 0 0

CELL_PARAMETERS angstrom
13.08676800000000 0.00000000000000 0.00000000000000
0.00000000000000 13.08676800000000 0.00000000000000
0.00000000000000 0.00000000000000 13.08676800000000

ATOMIC_POSITIONS angstrom
Cd  6.5433840000 0.0000000000 0.0000000000
Cd  9.8150760000 3.2716920000 0.0000000000
Cd  9.8150760000 0.0000000000 3.2716920000
Cd  3.2716920000 3.2716920000 0.0000000000
Cd  6.5433840000 6.5433840000 0.0000000000
Cd  9.8150760000 9.8150760000 0.0000000000
Cd  3.2716920000 0.0000000000 3.2716920000
Cd  6.5433840000 3.2716920000 3.2716920000
Cd  9.8150760000 6.5433840000 3.2716920000
Cd  6.5433840000 0.0000000000 6.5433840000
Cd  9.8150760000 3.2716920000 6.5433840000
Cd  9.8150760000 0.0000000000 9.8150760000
Cd  0.0000000000 6.5433840000 0.0000000000
Cd  3.2716920000 9.8150760000 0.0000000000
Cd  0.0000000000 3.2716920000 3.2716920000
Cd  3.2716920000 6.5433840000 3.2716920000
Cd  6.5433840000 9.8150760000 3.2716920000
Cd  0.0000000000 0.0000000000 6.5433840000
Cd  3.2716920000 3.2716920000 6.5433840000
Cd  6.5433840000 6.5433840000 6.5433840000
Cd  9.8150760000 9.8150760000 6.5433840000
Cd  3.2716920000 0.0000000000 9.8150760000
Cd  6.5433840000 3.2716920000 9.8150760000
Cd  9.8150760000 6.5433840000 9.8150760000
Cd  0.0000000000 9.8150760000 3.2716920000
Cd  0.0000000000 6.5433840000 6.5433840000
Cd  3.2716920000 9.8150760000 6.5433840000
Cd  0.0000000000 3.2716920000 9.8150760000
Cd  3.2716920000 6.5433840000 9.8150760000
Cd  6.5433840000 9.8150760000 9.8150760000
Cd  0.0000000000 9.8150760000 9.8150760000
Te  11.4509220000 4.9075380000 4.9075380000
Te  1.6358460000 8.1792300000 4.9075380000
Te  1.6358460000 4.9075380000 8.1792300000
Te  4.9075380000 4.9075380000 4.9075380000
Te  8.1792300000 8.1792300000 4.9075380000
Te  11.4509220000 11.4509220000 4.9075380000
Te  1.6358460000 1.6358460000 4.9075380000
Te  8.1792300000 4.9075380000 8.1792300000
Te  11.4509220000 8.1792300000 8.1792300000
Te  1.6358460000 11.4509220000 8.1792300000
Te  11.4509220000 4.9075380000 11.4509220000
Te  1.6358460000 8.1792300000 11.4509220000
Te  1.6358460000 4.9075380000 1.6358460000
Te  4.9075380000 11.4509220000 4.9075380000
Te  8.1792300000 1.6358460000 4.9075380000
Te  4.9075380000 8.1792300000 8.1792300000
Te  8.1792300000 11.4509220000 8.1792300000
Te  11.4509220000 1.6358460000 8.1792300000
Te  4.9075380000 4.9075380000 11.4509220000
Te  8.1792300000 8.1792300000 11.4509220000
Te  11.4509220000 11.4509220000 11.4509220000
Te  1.6358460000 1.6358460000 11.4509220000
Te  8.1792300000 4.9075380000 1.6358460000
Te  11.4509220000 8.1792300000 1.6358460000
Te  1.6358460000 11.4509220000 1.6358460000
Te  4.9075380000 1.6358460000 8.1792300000
Te  4.9075380000 11.4509220000 11.4509220000
Te  8.1792300000 1.6358460000 11.4509220000
Te  4.9075380000 8.1792300000 1.6358460000
Te  8.1792300000 11.4509220000 1.6358460000
Te  11.4509220000 1.6358460000 1.6358460000
Te  4.9075380000 1.6358460000 1.6358460000

