Unperturbed__num_neighbours=2__v_Cd_s0
1.0
  13.0867679999999993    0.0000000000000000    0.0000000000000000
   0.0000000000000000   13.0867679999999993    0.0000000000000000
   0.0000000000000000    0.0000000000000000   13.0867679999999993
Cd Te
31 32
direct
   0.0000000000000000    0.0000000000000000    0.5000000000000000 Cd2+
   0.0000000000000000    0.5000000000000000    0.0000000000000000 Cd2+
   0.0000000000000000    0.5000000000000000    0.5000000000000000 Cd2+
   0.5000000000000000    0.0000000000000000    0.0000000000000000 Cd2+
   0.5000000000000000    0.0000000000000000    0.5000000000000000 Cd2+
   0.5000000000000000    0.5000000000000000    0.0000000000000000 Cd2+
   0.5000000000000000    0.5000000000000000    0.5000000000000000 Cd2+
   0.0000000000000000    0.2500000000000000    0.2500000000000000 Cd2+
   0.0000000000000000    0.2500000000000000    0.7500000000000000 Cd2+
   0.0000000000000000    0.7500000000000000    0.2500000000000000 Cd2+
   0.0000000000000000    0.7500000000000000    0.7500000000000000 Cd2+
   0.5000000000000000    0.2500000000000000    0.2500000000000000 Cd2+
   0.5000000000000000    0.2500000000000000    0.7500000000000000 Cd2+
   0.5000000000000000    0.7500000000000000    0.2500000000000000 Cd2+
   0.5000000000000000    0.7500000000000000    0.7500000000000000 Cd2+
   0.2500000000000000    0.0000000000000000    0.2500000000000000 Cd2+
   0.2500000000000000    0.0000000000000000    0.7500000000000000 Cd2+
   0.2500000000000000    0.5000000000000000    0.2500000000000000 Cd2+
   0.2500000000000000    0.5000000000000000    0.7500000000000000 Cd2+
   0.7500000000000000    0.0000000000000000    0.2500000000000000 Cd2+
   0.7500000000000000    0.0000000000000000    0.7500000000000000 Cd2+
   0.7500000000000000    0.5000000000000000    0.2500000000000000 Cd2+
   0.7500000000000000    0.5000000000000000    0.7500000000000000 Cd2+
   0.2500000000000000    0.2500000000000000    0.0000000000000000 Cd2+
   0.2500000000000000    0.2500000000000000    0.5000000000000000 Cd2+
   0.2500000000000000    0.7500000000000000    0.0000000000000000 Cd2+
   0.2500000000000000    0.7500000000000000    0.5000000000000000 Cd2+
   0.7500000000000000    0.2500000000000000    0.0000000000000000 Cd2+
   0.7500000000000000    0.2500000000000000    0.5000000000000000 Cd2+
   0.7500000000000000    0.7500000000000000    0.0000000000000000 Cd2+
   0.7500000000000000    0.7500000000000000    0.5000000000000000 Cd2+
   0.1250000000000000    0.1250000000000000    0.3750000000000000 Te2-
   0.1250000000000000    0.1250000000000000    0.8750000000000000 Te2-
   0.1250000000000000    0.6250000000000000    0.3750000000000000 Te2-
   0.1250000000000000    0.6250000000000000    0.8750000000000000 Te2-
   0.6250000000000000    0.1250000000000000    0.3750000000000000 Te2-
   0.6250000000000000    0.1250000000000000    0.8750000000000000 Te2-
   0.6250000000000000    0.6250000000000000    0.3750000000000000 Te2-
   0.6250000000000000    0.6250000000000000    0.8750000000000000 Te2-
   0.1250000000000000    0.3750000000000000    0.1250000000000000 Te2-
   0.1250000000000000    0.3750000000000000    0.6250000000000000 Te2-
   0.1250000000000000    0.8750000000000000    0.1250000000000000 Te2-
   0.1250000000000000    0.8750000000000000    0.6250000000000000 Te2-
   0.6250000000000000    0.3750000000000000    0.1250000000000000 Te2-
   0.6250000000000000    0.3750000000000000    0.6250000000000000 Te2-
   0.6250000000000000    0.8750000000000000    0.1250000000000000 Te2-
   0.6250000000000000    0.8750000000000000    0.6250000000000000 Te2-
   0.3750000000000000    0.1250000000000000    0.1250000000000000 Te2-
   0.3750000000000000    0.1250000000000000    0.6250000000000000 Te2-
   0.3750000000000000    0.6250000000000000    0.1250000000000000 Te2-
   0.3750000000000000    0.6250000000000000    0.6250000000000000 Te2-
   0.8750000000000000    0.1250000000000000    0.1250000000000000 Te2-
   0.8750000000000000    0.1250000000000000    0.6250000000000000 Te2-
   0.8750000000000000    0.6250000000000000    0.1250000000000000 Te2-
   0.8750000000000000    0.6250000000000000    0.6250000000000000 Te2-
   0.3750000000000000    0.3750000000000000    0.3750000000000000 Te2-
   0.3750000000000000    0.3750000000000000    0.8750000000000000 Te2-
   0.3750000000000000    0.8750000000000000    0.3750000000000000 Te2-
   0.3750000000000000    0.8750000000000000    0.8750000000000000 Te2-
   0.8750000000000000    0.3750000000000000    0.3750000000000000 Te2-
   0.8750000000000000    0.3750000000000000    0.8750000000000000 Te2-
   0.8750000000000000    0.8750000000000000    0.3750000000000000 Te2-
   0.8750000000000000    0.8750000000000000    0.8750000000000000 Te2-
