-40.0%_BDM_Distortion_vac_1_Cd[0. 0. 0.]
   1.00000000000000     
    13.0867679999999993    0.0000000000000000    0.0000000000000000
     0.0000000000000000   13.0867679999999993    0.0000000000000000
     0.0000000000000000    0.0000000000000000   13.0867679999999993
   Cd   Te
    31    32
Direct
  0.0006381022141243  0.9985268575586912  0.4981201978319895
  0.0014843552626357  0.4981306949960011 -0.0014181628707567
  0.0003193548122061  0.4996213249089625  0.4979332015064063
  0.5011912153861089  0.9979552922342314 -0.0017754905697540
  0.5004613208326651  0.9982120403557005  0.4977933184122670
  0.5000866049644230  0.4983203713022854 -0.0028938189220790
  0.5009598872640741  0.4987444618275184  0.4980695152783328
  0.9924749792205080  0.2443215365104345  0.2444266516102223
  0.0081054347449960  0.2445686573148275  0.7535475934510183
  0.0066930946515435  0.7537615281225731  0.2435255684604493
  0.9939799535789513  0.7538469659286365  0.7540249576058236
  0.4998276500301184  0.2475619079782100  0.2466944516378217
  0.5018446940888845  0.2466799705827759  0.7501274879626690
  0.5010694720186983  0.7495702575127934  0.2465611108019199
  0.4997930500067522  0.7502857888937451  0.7496081107903603
  0.2437576827930157  0.9933233482251227  0.2433420267152968
  0.2447542150431621  0.0048563794747118  0.7530731749090327
  0.2499541902935271  0.4985383089376204  0.2464461985287363
  0.2504598231695715  0.4980112641330247  0.7494169135662707
  0.7560886016330755  0.0056969490776751  0.2433704448402546
  0.7570784663869272  0.9934847547398276  0.7543488037556472
  0.7512224404011014  0.4989934240979412  0.2473175606593072
  0.7520220052071154  0.4981595451214579  0.7496117921974078
  0.2442053451768064  0.2425298153577153 -0.0060971236411176
  0.2502937060806029  0.2476255000632639  0.4974543304255577
  0.2440821718198590  0.7540000709263217  0.0034453208728909
  0.2497352872826259  0.7497571507743181  0.4986884942531158
  0.7567394385818327  0.2445851688242380  0.0048808044266179
  0.7512036243713907  0.2470441134865660  0.5002340271003320
  0.7560859212855847  0.7529513149175016 -0.0061039174987955
  0.7515079914937567  0.7507164889964918  0.4978260288831202
  0.1250020068856434  0.1240409593447023  0.3718830629602362
  0.1160708563691542  0.1145734318373114  0.8819923230883426
  0.1258874461393138  0.6240430572221672  0.3726488375220439
  0.1256973777936221  0.6243351979759986  0.8731733983029457
  0.6257451815918358  0.1239676565137607  0.3730787728672483
  0.6282943832929336  0.1234614390389641  0.8748173557936841
  0.6256864259475354  0.6242524093305047  0.3732943049569519
  0.6259068451254187  0.6243527147735770  0.8736733118045865
  0.1251640230763335  0.3715339018053412  0.1241559444983050
  0.1259197293781599  0.3739406676474461  0.6227152716936040
  0.1156818611611466  0.8822698755759832  0.1144002189344686
  0.1253735004642714  0.8737965819631045  0.6247670555049027
  0.6255442628965493  0.3737009693441574  0.1226388747526592
  0.6253359123538775  0.3737497006967214  0.6242442151029739
  0.6276895302076276  0.8740770660932700  0.1235178475950920
  0.6260854863837393  0.8746746795800505  0.6246247386200307
  0.3739573581324239  0.1222847041745166  0.1233686090749068
  0.3756771671209529  0.1233785242370198  0.6239164157922178
  0.3751643821671499  0.6244421036417539  0.1218081080946908
  0.3757491751091396  0.6238436410608326  0.6237229322167444
  0.8847882371822077  0.1153688040845779  0.1146831062416783
  0.8762887905946315  0.1237153225335658  0.6254949536740114
  0.8760463307309124  0.6242756057516469  0.1236428447696057
  0.8753424192306953  0.6246500065530916  0.6239040781658418
  0.3758781611384276  0.3739829281996112  0.3726667912542862
  0.3748609038319152  0.3713462740246150  0.8741608343176959
  0.3748426121545959  0.8739601682627421  0.3719515645835787
  0.3736473535333051  0.8743585786451170  0.8738837682049202
  0.8744616570545005  0.3737780135873543  0.3742512151073588
  0.8760785164580324  0.3725026489011317  0.8738087059951135
  0.8754025509197623  0.8743920250083541  0.3715960954373499
  0.8846604754775136  0.8818760894098355  0.8835988700915357
 
  0.00000000E+00  0.00000000E+00  0.00000000E+00
  0.00000000E+00  0.00000000E+00  0.00000000E+00
  0.00000000E+00  0.00000000E+00  0.00000000E+00
  0.00000000E+00  0.00000000E+00  0.00000000E+00
  0.00000000E+00  0.00000000E+00  0.00000000E+00
  0.00000000E+00  0.00000000E+00  0.00000000E+00
  0.00000000E+00  0.00000000E+00  0.00000000E+00
  0.00000000E+00  0.00000000E+00  0.00000000E+00
  0.00000000E+00  0.00000000E+00  0.00000000E+00
  0.00000000E+00  0.00000000E+00  0.00000000E+00
  0.00000000E+00  0.00000000E+00  0.00000000E+00
  0.00000000E+00  0.00000000E+00  0.00000000E+00
  0.00000000E+00  0.00000000E+00  0.00000000E+00
  0.00000000E+00  0.00000000E+00  0.00000000E+00
  0.00000000E+00  0.00000000E+00  0.00000000E+00
  0.00000000E+00  0.00000000E+00  0.00000000E+00
  0.00000000E+00  0.00000000E+00  0.00000000E+00
  0.00000000E+00  0.00000000E+00  0.00000000E+00
  0.00000000E+00  0.00000000E+00  0.00000000E+00
  0.00000000E+00  0.00000000E+00  0.00000000E+00
  0.00000000E+00  0.00000000E+00  0.00000000E+00
  0.00000000E+00  0.00000000E+00  0.00000000E+00
  0.00000000E+00  0.00000000E+00  0.00000000E+00
  0.00000000E+00  0.00000000E+00  0.00000000E+00
  0.00000000E+00  0.00000000E+00  0.00000000E+00
  0.00000000E+00  0.00000000E+00  0.00000000E+00
  0.00000000E+00  0.00000000E+00  0.00000000E+00
  0.00000000E+00  0.00000000E+00  0.00000000E+00
  0.00000000E+00  0.00000000E+00  0.00000000E+00
  0.00000000E+00  0.00000000E+00  0.00000000E+00
  0.00000000E+00  0.00000000E+00  0.00000000E+00
  0.00000000E+00  0.00000000E+00  0.00000000E+00
  0.00000000E+00  0.00000000E+00  0.00000000E+00
  0.00000000E+00  0.00000000E+00  0.00000000E+00
  0.00000000E+00  0.00000000E+00  0.00000000E+00
  0.00000000E+00  0.00000000E+00  0.00000000E+00
  0.00000000E+00  0.00000000E+00  0.00000000E+00
  0.00000000E+00  0.00000000E+00  0.00000000E+00
  0.00000000E+00  0.00000000E+00  0.00000000E+00
  0.00000000E+00  0.00000000E+00  0.00000000E+00
  0.00000000E+00  0.00000000E+00  0.00000000E+00
  0.00000000E+00  0.00000000E+00  0.00000000E+00
  0.00000000E+00  0.00000000E+00  0.00000000E+00
  0.00000000E+00  0.00000000E+00  0.00000000E+00
  0.00000000E+00  0.00000000E+00  0.00000000E+00
  0.00000000E+00  0.00000000E+00  0.00000000E+00
  0.00000000E+00  0.00000000E+00  0.00000000E+00
  0.00000000E+00  0.00000000E+00  0.00000000E+00
  0.00000000E+00  0.00000000E+00  0.00000000E+00
  0.00000000E+00  0.00000000E+00  0.00000000E+00
  0.00000000E+00  0.00000000E+00  0.00000000E+00
  0.00000000E+00  0.00000000E+00  0.00000000E+00
  0.00000000E+00  0.00000000E+00  0.00000000E+00
  0.00000000E+00  0.00000000E+00  0.00000000E+00
  0.00000000E+00  0.00000000E+00  0.00000000E+00
  0.00000000E+00  0.00000000E+00  0.00000000E+00
  0.00000000E+00  0.00000000E+00  0.00000000E+00
  0.00000000E+00  0.00000000E+00  0.00000000E+00
  0.00000000E+00  0.00000000E+00  0.00000000E+00
  0.00000000E+00  0.00000000E+00  0.00000000E+00
  0.00000000E+00  0.00000000E+00  0.00000000E+00
  0.00000000E+00  0.00000000E+00  0.00000000E+00
  0.00000000E+00  0.00000000E+00  0.00000000E+00
