-60.0%__num_neighbours=1__Vac_O_mult32  
   1.0000000000000000     
     0.0000000000000000   10.7468629999999994    0.0000000000000000
   -10.7468629999999994    0.0000000000000000    0.0000000000000000
     0.0000000000000000    0.0000000000000000    9.7925889999999995
   Sr   Cu   O 
    16    32    31
Direct
  0.0093842947021372  0.2323719301737600  0.2472899883900172
  0.5056903406113753  0.2450995185933895  0.2480095091295110
  0.0092363632938081  0.7588428413849673  0.2475023662076244
  0.5054276769635165  0.7462756928352845  0.2480954729175017
  0.2583036935381420 -0.0041541713748300  0.7498083271010683
  0.7562816034686241  0.9957356130030165  0.7488419606713349
  0.2583939437758897  0.4958759439594175  0.7515932269952619
  0.7542707887400153  0.4958239303324872  0.7481855743440202
  0.0085916181045788  0.4956955151233378  0.5037768506381189
  0.5057016480619001  0.4957235661136566  0.4961893785511053
  0.0073223282623872 -0.0041901333293148  0.5021662850737105
  0.5072427657329007 -0.0040707729281517  0.4996850662301588
  0.2574354026439026  0.2491933790263058 -0.0010904169119553
  0.7571414505879707  0.2480520071201313 -0.0024682226154527
  0.2571480428176484  0.7424932792037079 -0.0006055191430780
  0.7571282099766725  0.7431519763576022 -0.0020668597002209
  0.2527244034265851  0.3705436624659151  0.3738557807511977
  0.7668972913969053  0.3746974848625296  0.3656308814619344
  0.2573259260335642  0.8700471258901820  0.3761798685423956
  0.7575663308822070  0.8698340074946204  0.3743128370643611
  0.5073786019905454  0.1206989330102291  0.8739428288439679
  0.0075495528012875  0.1208135231821604  0.8748143931303504
  0.5071966666114245  0.6195117109901370  0.8734211858771845
  0.0056396278417125  0.6204490848046840  0.8726178581069479
  0.3652565598835834  0.4955219659234522  0.1321999243329557
  0.8597940671907057  0.4956973927950939  0.1615510873672678
  0.3817942053177636  0.9954879128997800  0.1243612159400984
  0.8805777004024792 -0.0042087279551650  0.1206636364725703
  0.6323379560004384  0.2464583066125827  0.6230711647064124
  0.1324303892626592  0.2465195474193119  0.6221696142917214
  0.6320199222013024  0.7451330349365385  0.6233795475090314
  0.1322468971554512  0.7450538265950045  0.6223207671340714
  0.2525596258268793  0.6203904833166530  0.3738868625586811
  0.7666476547606170  0.6173469199819023  0.3656124339848864
  0.2575625532361580  0.1208935001215660  0.3757474380772612
  0.7576944779342770  0.1221945107233989  0.3744050126222453
  0.5073124592930877  0.3710373639590516  0.8733521159466890
  0.0055480688371843  0.3707723126529753  0.8726774013293582
  0.5072707324049849  0.8695394748432843  0.8739999795444621
  0.0076566598257490  0.8704514083926306  0.8749291114773113
  0.0765292698316514  0.4956220359240786  0.0804622080501626
  0.6204896088192416  0.4957068823574025  0.1143043508318270
  0.1308675323301529 -0.0044606434154729  0.1183337261445125
  0.6314278001234197 -0.0044940378677056  0.1244020296020801
  0.3822530336070891  0.2468158575517864  0.6230860467766457
  0.8823415949892185  0.2464479409975384  0.6223945461700735
  0.3820207771978393  0.7447066432362586  0.6232773667268205
  0.8821802105372242  0.7451401006353090  0.6223942564573065
  0.5000990639772714  0.4955594122694847  0.2463310344004395
  0.0065464374572975  0.9956327360977139  0.2465039075658208
  0.5067334906307873  0.9954544103520240  0.2499219641615978
  0.2567596695986428  0.2471166503431294  0.7486531664247165
  0.7577157737858986  0.2471165787796099  0.7481713748837655
  0.2565235127354099  0.7440108161140896  0.7489218583026926
  0.7576208986541254  0.7444160820288156  0.7483270188159448
  0.0076096178282991  0.2466903292818224 -0.0006229224912456
  0.5075998171901153  0.2464597840381653 -0.0009908863879839
  0.0074645721583993  0.7444534102228093 -0.0005582415275384
  0.5073132388813145  0.7439410904193416 -0.0007520663215374
  0.2568986064492949 -0.0043683479693406  0.5005374877595401
  0.7566749578540921 -0.0040360090334137  0.4984636185542728
  0.2511280763705466  0.4954487625856933  0.4994739170070985
  0.7622726732435691  0.4960641497187041  0.4950699586522062
  0.0070332545257313  0.2477096048225011  0.4962709364442986
  0.5076563334131319  0.2477150241457528  0.4973064937530459
  0.0069074134788171  0.7436470688702626  0.4962447928291254
  0.5074065592879853  0.7436927545648195  0.4974446560974511
  0.2582093060308288 -0.0046583414384166 -0.0024631867492758
  0.7549412240781223 -0.0041605162520397 -0.0026083356745399
  0.2411055576306137  0.4954381833727849  0.0053718826100562
  0.7553991705902288  0.4957421957505198  0.0016614205068082
  0.0034561783256135  0.4955851979654556  0.7462406328766409
  0.5058490244836987  0.4952977153833418  0.7466469853609030
  0.0066741078778933 -0.0044042384721108  0.7493533087441011
  0.5073600299680467  0.9951154380553283  0.7489773899901240
  0.2553243143790051  0.2452124927412166  0.2491585579751006
  0.7619642836235364  0.2459009158882970  0.2468596169597253
  0.2548751210387787  0.7458315918155566  0.2494292549217381
  0.7615343852180793  0.7460433966056060  0.2468919378434137

  0.00000000E+00  0.00000000E+00  0.00000000E+00
  0.00000000E+00  0.00000000E+00  0.00000000E+00
  0.00000000E+00  0.00000000E+00  0.00000000E+00
  0.00000000E+00  0.00000000E+00  0.00000000E+00
  0.00000000E+00  0.00000000E+00  0.00000000E+00
  0.00000000E+00  0.00000000E+00  0.00000000E+00
  0.00000000E+00  0.00000000E+00  0.00000000E+00
  0.00000000E+00  0.00000000E+00  0.00000000E+00
  0.00000000E+00  0.00000000E+00  0.00000000E+00
  0.00000000E+00  0.00000000E+00  0.00000000E+00
  0.00000000E+00  0.00000000E+00  0.00000000E+00
  0.00000000E+00  0.00000000E+00  0.00000000E+00
  0.00000000E+00  0.00000000E+00  0.00000000E+00
  0.00000000E+00  0.00000000E+00  0.00000000E+00
  0.00000000E+00  0.00000000E+00  0.00000000E+00
  0.00000000E+00  0.00000000E+00  0.00000000E+00
  0.00000000E+00  0.00000000E+00  0.00000000E+00
  0.00000000E+00  0.00000000E+00  0.00000000E+00
  0.00000000E+00  0.00000000E+00  0.00000000E+00
  0.00000000E+00  0.00000000E+00  0.00000000E+00
  0.00000000E+00  0.00000000E+00  0.00000000E+00
  0.00000000E+00  0.00000000E+00  0.00000000E+00
  0.00000000E+00  0.00000000E+00  0.00000000E+00
  0.00000000E+00  0.00000000E+00  0.00000000E+00
  0.00000000E+00  0.00000000E+00  0.00000000E+00
  0.00000000E+00  0.00000000E+00  0.00000000E+00
  0.00000000E+00  0.00000000E+00  0.00000000E+00
  0.00000000E+00  0.00000000E+00  0.00000000E+00
  0.00000000E+00  0.00000000E+00  0.00000000E+00
  0.00000000E+00  0.00000000E+00  0.00000000E+00
  0.00000000E+00  0.00000000E+00  0.00000000E+00
  0.00000000E+00  0.00000000E+00  0.00000000E+00
  0.00000000E+00  0.00000000E+00  0.00000000E+00
  0.00000000E+00  0.00000000E+00  0.00000000E+00
  0.00000000E+00  0.00000000E+00  0.00000000E+00
  0.00000000E+00  0.00000000E+00  0.00000000E+00
  0.00000000E+00  0.00000000E+00  0.00000000E+00
  0.00000000E+00  0.00000000E+00  0.00000000E+00
  0.00000000E+00  0.00000000E+00  0.00000000E+00
  0.00000000E+00  0.00000000E+00  0.00000000E+00
  0.00000000E+00  0.00000000E+00  0.00000000E+00
  0.00000000E+00  0.00000000E+00  0.00000000E+00
  0.00000000E+00  0.00000000E+00  0.00000000E+00
  0.00000000E+00  0.00000000E+00  0.00000000E+00
  0.00000000E+00  0.00000000E+00  0.00000000E+00
  0.00000000E+00  0.00000000E+00  0.00000000E+00
  0.00000000E+00  0.00000000E+00  0.00000000E+00
  0.00000000E+00  0.00000000E+00  0.00000000E+00
  0.00000000E+00  0.00000000E+00  0.00000000E+00
  0.00000000E+00  0.00000000E+00  0.00000000E+00
  0.00000000E+00  0.00000000E+00  0.00000000E+00
  0.00000000E+00  0.00000000E+00  0.00000000E+00
  0.00000000E+00  0.00000000E+00  0.00000000E+00
  0.00000000E+00  0.00000000E+00  0.00000000E+00
  0.00000000E+00  0.00000000E+00  0.00000000E+00
  0.00000000E+00  0.00000000E+00  0.00000000E+00
  0.00000000E+00  0.00000000E+00  0.00000000E+00
  0.00000000E+00  0.00000000E+00  0.00000000E+00
  0.00000000E+00  0.00000000E+00  0.00000000E+00
  0.00000000E+00  0.00000000E+00  0.00000000E+00
  0.00000000E+00  0.00000000E+00  0.00000000E+00
  0.00000000E+00  0.00000000E+00  0.00000000E+00
  0.00000000E+00  0.00000000E+00  0.00000000E+00
  0.00000000E+00  0.00000000E+00  0.00000000E+00
  0.00000000E+00  0.00000000E+00  0.00000000E+00
  0.00000000E+00  0.00000000E+00  0.00000000E+00
  0.00000000E+00  0.00000000E+00  0.00000000E+00
  0.00000000E+00  0.00000000E+00  0.00000000E+00
  0.00000000E+00  0.00000000E+00  0.00000000E+00
  0.00000000E+00  0.00000000E+00  0.00000000E+00
  0.00000000E+00  0.00000000E+00  0.00000000E+00
  0.00000000E+00  0.00000000E+00  0.00000000E+00
  0.00000000E+00  0.00000000E+00  0.00000000E+00
  0.00000000E+00  0.00000000E+00  0.00000000E+00
  0.00000000E+00  0.00000000E+00  0.00000000E+00
  0.00000000E+00  0.00000000E+00  0.00000000E+00
  0.00000000E+00  0.00000000E+00  0.00000000E+00
  0.00000000E+00  0.00000000E+00  0.00000000E+00
  0.00000000E+00  0.00000000E+00  0.00000000E+00
