&CONTROL
   calculation      = 'relax'
   title            = 'espresso'
   nstep            = 300
   tstress          = .false.
   tprnfor          = .true.
/
&SYSTEM
   ibrav            = 0
   tot_charge       = 0
   ecutwfc          = 30.0
   nosym            = .true.
   occupations      = 'smearing'
   degauss          = 0.0015
   nspin            = 2
   input_dft        = 'HSE'
   exx_fraction     = 0.25
   starting_magnetization(1) = 0.0
   starting_magnetization(2) = 0.0
   ntyp             = 2
   nat              = 63
/
&ELECTRONS
   ecutwfc          = 33.0
/
&IONS
/
&CELL
/

ATOMIC_SPECIES
Cd  112.414 Cd_pbe_v1.uspp.F.UPF
Te  127.6 Te.pbe-n-rrkjus_psl.1.0.0.UPF

K_POINTS automatic
1 1 1  0 0 0

CELL_PARAMETERS angstrom
13.08676800000000 0.00000000000000 0.00000000000000
0.00000000000000 13.08676800000000 0.00000000000000
0.00000000000000 0.00000000000000 13.08676800000000

ATOMIC_POSITIONS angstrom
Cd  6.3998928399 -0.2385151837 0.2717017816
Cd  10.2645048801 3.5053076959 -0.0135321750
Cd  9.9414406364 -0.0113488302 3.1330585596
Cd  2.9027096994 3.2294764329 -0.2883727639
Cd  7.0218513569 6.3476907038 0.2934671812
Cd  9.6865866236 9.1144180793 -0.0941166578
Cd  3.3514525834 0.0952433355 3.2930031417
Cd  6.4503376309 2.7998390985 3.1815963828
Cd  10.1615448881 6.4202869479 3.5744142146
Cd  6.1051050217 -0.0492914315 6.9228570442
Cd  10.1434643823 3.2765769895 7.1305062250
Cd  10.1019135728 -0.3142728900 10.1622309177
Cd  -0.3197259259 6.6599973272 0.1660213240
Cd  3.6916854238 9.9293480414 -0.1897955349
Cd  -0.1516965217 3.0706990410 3.1716572177
Cd  3.1626833422 6.4323039522 2.9480614051
Cd  6.8007659650 9.8048421762 3.5196904972
Cd  0.3906020322 0.0773629832 6.6831566402
Cd  3.6238402965 3.0947372031 6.4659386536
Cd  6.5426435176 6.5949379070 6.2555605954
Cd  10.0558411376 9.6312988500 6.8058466226
Cd  3.0930461691 -0.0544704498 9.8810735404
Cd  6.1117575288 2.9606283692 9.7888888342
Cd  9.5864821955 6.2251964424 10.0537753778
Cd  -0.2787873991 10.3129619217 3.3084856846
Cd  -0.0021732653 6.6994024497 6.5121592001
Cd  3.7490142595 9.9037468136 7.0053582215
Cd  0.2288539698 3.3624204961 9.4452566663
Cd  3.4734998980 6.7781152914 9.5929891961
Cd  6.7865634199 9.7506018847 9.7245642959
Cd  -0.1511397300 9.9262589321 10.0608623270
Te  11.5984197308 5.1008141620 5.1968322974
Te  1.4317034215 8.3764313632 5.4279434803
Te  1.9391896628 5.2072009397 8.2191229841
Te  5.0107281729 4.9147463824 4.5760766404
Te  8.2204442208 7.9814747527 5.0811463639
Te  11.1424426607 11.3668330052 4.5464792201
Te  1.9110841279 1.9570317189 4.8416137907
Te  8.3906081591 4.9156108630 8.2376406383
Te  11.7393911002 8.4303468520 7.9744442412
Te  1.6770642906 11.5168340802 8.0240863225
Te  11.6939575268 5.2674397134 11.3477002657
Te  1.3807784879 7.8884020396 11.0834456790
Te  1.7798884964 4.7490264262 1.7069286434
Te  4.4991439186 11.5137729195 4.9829462335
Te  7.7580835167 1.5564767319 5.2953417096
Te  5.1468580531 8.0908851643 8.4919150469
Te  8.1760742053 11.5858674499 8.5010287837
Te  11.4410379032 1.3712645988 8.3494584775
Te  5.0460973600 4.6483868121 11.3899691827
Te  8.4464953962 7.7956329835 11.6341056436
Te  10.9601444715 10.9601444715 10.9601444715
Te  2.1266235285 2.1266235285 10.9601444715
Te  8.4949140482 4.7792787949 1.7829148988
Te  11.8382652606 8.4193074354 1.4585392335
Te  1.4825148544 11.4763202339 2.2313837510
Te  4.7676801086 1.6740533322 8.1834567889
Te  4.9156377017 11.5432414287 10.9929899678
Te  7.8317537244 2.2147353452 11.4391874791
Te  5.4270849150 7.9933412852 2.2681895497
Te  8.1307299992 11.7167984126 1.6507617087
Te  10.9990201870 1.6633943262 1.8009105481
Te  5.0672042817 1.4602255681 1.6228615317

