-30.0%_Bond__vac_1_Cd[0. 0. 0.]_-dNELECT
   1.0000000000000000     
    13.0867679999999993    0.0000000000000000    0.0000000000000000
     0.0000000000000000   13.0867679999999993    0.0000000000000000
     0.0000000000000000    0.0000000000000000   13.0867679999999993
   Cd   Te
    31    32
Direct
  0.0136310769294513  0.0042177143310380  0.4961239203958608
  0.0137458915331555  0.5044097743423294 -0.0038843066305250
  0.0026467129788541  0.5040513650022067  0.4957678038941665
  0.5142168531545060  0.0042957990055480  0.9959879426030335
  0.4952876681136574  0.0040358439598118  0.4957878178498784
  0.4952373040354867  0.5042071385918325  0.9959704435217405
  0.5036908675473173  0.5041461830981325  0.4959864351337218
  0.9897488766027124  0.2500224353241672  0.2417226797211577
  0.9728742071128432  0.2791882787422305  0.7209665276221052
  0.9729201610180159  0.7292175025370896  0.2711930822259673
  0.9894539281643927  0.7582457460049344  0.7497240553381965
  0.5113900358629793  0.2615151642280327  0.2533183245791330
  0.4998162964171223  0.2532785195985512  0.7466747728235104
  0.4996765319972505  0.7547758482891147  0.2451933989832506
  0.5114073268366545  0.7464521363449399  0.7385446720145751
  0.2574695422342404  0.0125303346652424  0.2332568421065160
  0.2579995157422635 -0.0041824562666458  0.7585136852966470
  0.2518687887114443  0.5011184055286960  0.2410290746393628
  0.2515739890432119  0.5074069485013960  0.7506130915774682
  0.7545014456119576  0.0134072270212323  0.2389821639399856
  0.7540926230936175 -0.0049010317075271  0.7527116795743541
  0.7519222139439257  0.5050621551231886  0.2444573143207920
  0.7517625388734250  0.5035215907878431  0.7474043502506525
  0.2577334611940233  0.2414452015174949  0.0041643150799434
  0.2516086761294754  0.2497418459246351  0.4926465268454087
  0.2573754130457650  0.7673096072129417  0.9871509867687219
  0.2515217085430305  0.7587116211469231  0.4990789897282370
  0.7542970098598097  0.2478670875012159  0.0049734306943535
  0.7514431746864424  0.2525286081112966  0.4969862756768577
  0.7541338221218002  0.7611150345161898 -0.0130172399358597
  0.7514498860439831  0.7559592114583440  0.4949176049598655
  0.1277675293673446  0.1297949528003413  0.3641311607619588
  0.1362340165535584  0.0785998127045738  0.9212985395365865
  0.1301286457367157  0.6287105878929752  0.3712141251864286
  0.1276691718829738  0.6361833908250903  0.8701498945555083
  0.6272604236794214  0.1271095771202976  0.3748058499792166
  0.6310566296480788  0.1323175050092849  0.8680428436675576
  0.6265311019015256  0.6303385856498769  0.3696343702107465
  0.6272727414196403  0.6252777944526224  0.8729410310464635
  0.1279585468069429  0.3723627286592864  0.1214660605447837
  0.1300771484672950  0.3796234644598313  0.6205108728893477
  0.1358836108254642  0.9303903982286457  0.0697856532250031
  0.1279141888225510  0.8786961127477141  0.6278345711052947
  0.6271125249921404  0.3832616698333297  0.1190475884895978
  0.6265295123250911  0.3780289376105150  0.6222404644879272
  0.6308416068146787  0.8762853865303311  0.1240976782331230
  0.6269757650735296  0.8811093665712753  0.6170157321548085
  0.3968513956376172  0.1330159252793324  0.1249051245412087
  0.3707399967060454  0.1271129416009070  0.6256613792484756
  0.3705337455475088  0.6344586197502078  0.1183963151209848
  0.3761334691070653  0.6276420976332240  0.6194513350228037
  0.8844420759757851  0.1206862331341991  0.1119660409898963
  0.8768147669703359  0.1230347488680334  0.6189611569764248
  0.8770200738357192  0.6273630513291096  0.1149090257372014
  0.8754670993409981  0.6279363244431042  0.6193073662787780
  0.3763051699163033  0.3807408839842022  0.3723496570635899
  0.3706986536136257  0.3741495880040677  0.8730309966118593
  0.3705046009818149  0.8812041338531901  0.3658412678244501
  0.3971574459150607  0.8752529458282319  0.8669959201078814
  0.8755503174970447  0.3801535652249824  0.3722811572938254
  0.8769920131309356  0.3815757572468971  0.8770624592038608
  0.8770520989276489  0.8855531752779142  0.3730345965280042
  0.8843713653967503  0.8877728970039809  0.8793831037773437

  0.00000000E+00  0.00000000E+00  0.00000000E+00
  0.00000000E+00  0.00000000E+00  0.00000000E+00
  0.00000000E+00  0.00000000E+00  0.00000000E+00
  0.00000000E+00  0.00000000E+00  0.00000000E+00
  0.00000000E+00  0.00000000E+00  0.00000000E+00
  0.00000000E+00  0.00000000E+00  0.00000000E+00
  0.00000000E+00  0.00000000E+00  0.00000000E+00
  0.00000000E+00  0.00000000E+00  0.00000000E+00
  0.00000000E+00  0.00000000E+00  0.00000000E+00
  0.00000000E+00  0.00000000E+00  0.00000000E+00
  0.00000000E+00  0.00000000E+00  0.00000000E+00
  0.00000000E+00  0.00000000E+00  0.00000000E+00
  0.00000000E+00  0.00000000E+00  0.00000000E+00
  0.00000000E+00  0.00000000E+00  0.00000000E+00
  0.00000000E+00  0.00000000E+00  0.00000000E+00
  0.00000000E+00  0.00000000E+00  0.00000000E+00
  0.00000000E+00  0.00000000E+00  0.00000000E+00
  0.00000000E+00  0.00000000E+00  0.00000000E+00
  0.00000000E+00  0.00000000E+00  0.00000000E+00
  0.00000000E+00  0.00000000E+00  0.00000000E+00
  0.00000000E+00  0.00000000E+00  0.00000000E+00
  0.00000000E+00  0.00000000E+00  0.00000000E+00
  0.00000000E+00  0.00000000E+00  0.00000000E+00
  0.00000000E+00  0.00000000E+00  0.00000000E+00
  0.00000000E+00  0.00000000E+00  0.00000000E+00
  0.00000000E+00  0.00000000E+00  0.00000000E+00
  0.00000000E+00  0.00000000E+00  0.00000000E+00
  0.00000000E+00  0.00000000E+00  0.00000000E+00
  0.00000000E+00  0.00000000E+00  0.00000000E+00
  0.00000000E+00  0.00000000E+00  0.00000000E+00
  0.00000000E+00  0.00000000E+00  0.00000000E+00
  0.00000000E+00  0.00000000E+00  0.00000000E+00
  0.00000000E+00  0.00000000E+00  0.00000000E+00
  0.00000000E+00  0.00000000E+00  0.00000000E+00
  0.00000000E+00  0.00000000E+00  0.00000000E+00
  0.00000000E+00  0.00000000E+00  0.00000000E+00
  0.00000000E+00  0.00000000E+00  0.00000000E+00
  0.00000000E+00  0.00000000E+00  0.00000000E+00
  0.00000000E+00  0.00000000E+00  0.00000000E+00
  0.00000000E+00  0.00000000E+00  0.00000000E+00
  0.00000000E+00  0.00000000E+00  0.00000000E+00
  0.00000000E+00  0.00000000E+00  0.00000000E+00
  0.00000000E+00  0.00000000E+00  0.00000000E+00
  0.00000000E+00  0.00000000E+00  0.00000000E+00
  0.00000000E+00  0.00000000E+00  0.00000000E+00
  0.00000000E+00  0.00000000E+00  0.00000000E+00
  0.00000000E+00  0.00000000E+00  0.00000000E+00
  0.00000000E+00  0.00000000E+00  0.00000000E+00
  0.00000000E+00  0.00000000E+00  0.00000000E+00
  0.00000000E+00  0.00000000E+00  0.00000000E+00
  0.00000000E+00  0.00000000E+00  0.00000000E+00
  0.00000000E+00  0.00000000E+00  0.00000000E+00
  0.00000000E+00  0.00000000E+00  0.00000000E+00
  0.00000000E+00  0.00000000E+00  0.00000000E+00
  0.00000000E+00  0.00000000E+00  0.00000000E+00
  0.00000000E+00  0.00000000E+00  0.00000000E+00
  0.00000000E+00  0.00000000E+00  0.00000000E+00
  0.00000000E+00  0.00000000E+00  0.00000000E+00
  0.00000000E+00  0.00000000E+00  0.00000000E+00
  0.00000000E+00  0.00000000E+00  0.00000000E+00
  0.00000000E+00  0.00000000E+00  0.00000000E+00
  0.00000000E+00  0.00000000E+00  0.00000000E+00
  0.00000000E+00  0.00000000E+00  0.00000000E+00
