only_rattled_vac_1_Cd[0. 0. 0.]_KV=-dNEL
   1.00000000000000     
    13.0867679999999993    0.0000000000000000    0.0000000000000000
     0.0000000000000000   13.0867679999999993    0.0000000000000000
     0.0000000000000000    0.0000000000000000   13.0867679999999993
   Cd   Te
    31    32
Direct
  0.0019717507498865  0.9979709046654136  0.4985091803318404
  0.0017604733602252  0.4976458806131558  0.9992315640712451
  0.0014535885947239  0.4974615016481082  0.4992612143740779
  0.5025783984514552  0.9979566668967262 -0.0011478539884922
  0.5008305747586190  0.9970790483101831  0.4983888449508974
  0.5012103993459091  0.4974606945149090 -0.0014673971761626
  0.5016313706561535  0.4973425405901464  0.4993619478395920
  0.9940502028446208  0.2428824668431140  0.2442631769251767
  0.0090986004036409  0.2427826195367649  0.7555105861662623
  0.0078419346093251  0.7534326913534302  0.2437881651669165
  0.9944384168162745  0.7538439629724332  0.7550674416834419
  0.5001354824285352  0.2464883433997147  0.2478313559865717
  0.5015644737834022  0.2460112652443517  0.7504410598151529
  0.5020294093596908  0.7491716411508031  0.2473851739185072
  0.5016341536088933  0.7497328671017811  0.7496952822203214
  0.2451514286347757  0.9901394775590351  0.2437738418391767
  0.2459684699939607  0.0053112967922253  0.7548070602029467
  0.2506594108876050  0.4980500161749031  0.2472364008239517
  0.2503483017401463  0.4979004705732577  0.7517991434528241
  0.7569191285070823  0.0059861414721400  0.2436822392461473
  0.7580294047651317  0.9915824076015644  0.7549268351214535
  0.7524935895216509  0.4983306168449896  0.2480863626349772
  0.7531031687249443  0.4976373138459068  0.7499265690955025
  0.2454999539382470  0.2415832429441907 -0.0062602349180150
  0.2502027376746057  0.2468789487995434  0.4985856239067502
  0.2458077976564046  0.7547009485949930  0.0056615391944107
  0.2496234165597024  0.7477716876078516  0.5008649934568480
  0.7567822986985785  0.2432915872928401  0.0064098445341079
  0.7522583387010021  0.2459274422299139  0.5004681419115403
  0.7566205324167287  0.7531326409595220 -0.0075865758184672
  0.7527141873113147  0.7495117123909527  0.4979558950957559
  0.1263401934864151  0.1233031784709150  0.3722740402077810
  0.1173370401215516  0.1136627935689646  0.8838801685484602
  0.1260028279593514  0.6227964654424920  0.3739160764032652
  0.1261079680371533  0.6247492475037040  0.8746389238786683
  0.6260188979217828  0.1227117731547177  0.3740101679676885
  0.6286185119334777  0.1233266356078418  0.8743796361231155
  0.6260763114088757  0.6230046723533599  0.3740659868515582
  0.6262602385339561  0.6228121937380289  0.8739707663867611
  0.1260159651082243  0.3713490457590499  0.1246574749878290
  0.1263676462276259  0.3728453541089438  0.6247140421109955
  0.1162274231356950  0.8819525300310699  0.1149896100763426
  0.1259788288707914  0.8733236922010322  0.6258747087249326
  0.6260028868015399  0.3727593054794155  0.1241532419118912
  0.6262809719199769  0.3723354631953516  0.6249074419667426
  0.6285750274192744  0.8734558853843850  0.1243692113741928
  0.6273116697978974  0.8739978754096270  0.6240658414538454
  0.3748501472699792  0.1214473633285016  0.1242325150234629
  0.3760444886710709  0.1225708965249620  0.6239649322327903
  0.3761133489051375  0.6238715124842374  0.1228406468424674
  0.3762697744136216  0.6223268567609107  0.6250835650465468
  0.8851844126407447  0.1149838732898544  0.1155259928335172
  0.8778059982952348  0.1231416657715887  0.6260125604660540
  0.8764489266594764  0.6241725683004609  0.1240915213844185
  0.8768453538530605  0.6239384965257381  0.6241087541018057
  0.3759957243160642  0.3729713011109803  0.3739673577827536
  0.3758506229593874  0.3712992262452905  0.8750455528434001
  0.3752986075298577  0.8718699457779946  0.3741494145290896
  0.3753694688594821  0.8737656426446135  0.8741739219239248
  0.8759068929425191  0.3723931287258889  0.3746745055206090
  0.8765958494292132  0.3714976637993256  0.8744702534679641
  0.8762775064879935  0.8738322942628497  0.3720730873011052
  0.8852600725803039  0.8818394065130551  0.8839446576607457
 
  0.00000000E+00  0.00000000E+00  0.00000000E+00
  0.00000000E+00  0.00000000E+00  0.00000000E+00
  0.00000000E+00  0.00000000E+00  0.00000000E+00
  0.00000000E+00  0.00000000E+00  0.00000000E+00
  0.00000000E+00  0.00000000E+00  0.00000000E+00
  0.00000000E+00  0.00000000E+00  0.00000000E+00
  0.00000000E+00  0.00000000E+00  0.00000000E+00
  0.00000000E+00  0.00000000E+00  0.00000000E+00
  0.00000000E+00  0.00000000E+00  0.00000000E+00
  0.00000000E+00  0.00000000E+00  0.00000000E+00
  0.00000000E+00  0.00000000E+00  0.00000000E+00
  0.00000000E+00  0.00000000E+00  0.00000000E+00
  0.00000000E+00  0.00000000E+00  0.00000000E+00
  0.00000000E+00  0.00000000E+00  0.00000000E+00
  0.00000000E+00  0.00000000E+00  0.00000000E+00
  0.00000000E+00  0.00000000E+00  0.00000000E+00
  0.00000000E+00  0.00000000E+00  0.00000000E+00
  0.00000000E+00  0.00000000E+00  0.00000000E+00
  0.00000000E+00  0.00000000E+00  0.00000000E+00
  0.00000000E+00  0.00000000E+00  0.00000000E+00
  0.00000000E+00  0.00000000E+00  0.00000000E+00
  0.00000000E+00  0.00000000E+00  0.00000000E+00
  0.00000000E+00  0.00000000E+00  0.00000000E+00
  0.00000000E+00  0.00000000E+00  0.00000000E+00
  0.00000000E+00  0.00000000E+00  0.00000000E+00
  0.00000000E+00  0.00000000E+00  0.00000000E+00
  0.00000000E+00  0.00000000E+00  0.00000000E+00
  0.00000000E+00  0.00000000E+00  0.00000000E+00
  0.00000000E+00  0.00000000E+00  0.00000000E+00
  0.00000000E+00  0.00000000E+00  0.00000000E+00
  0.00000000E+00  0.00000000E+00  0.00000000E+00
  0.00000000E+00  0.00000000E+00  0.00000000E+00
  0.00000000E+00  0.00000000E+00  0.00000000E+00
  0.00000000E+00  0.00000000E+00  0.00000000E+00
  0.00000000E+00  0.00000000E+00  0.00000000E+00
  0.00000000E+00  0.00000000E+00  0.00000000E+00
  0.00000000E+00  0.00000000E+00  0.00000000E+00
  0.00000000E+00  0.00000000E+00  0.00000000E+00
  0.00000000E+00  0.00000000E+00  0.00000000E+00
  0.00000000E+00  0.00000000E+00  0.00000000E+00
  0.00000000E+00  0.00000000E+00  0.00000000E+00
  0.00000000E+00  0.00000000E+00  0.00000000E+00
  0.00000000E+00  0.00000000E+00  0.00000000E+00
  0.00000000E+00  0.00000000E+00  0.00000000E+00
  0.00000000E+00  0.00000000E+00  0.00000000E+00
  0.00000000E+00  0.00000000E+00  0.00000000E+00
  0.00000000E+00  0.00000000E+00  0.00000000E+00
  0.00000000E+00  0.00000000E+00  0.00000000E+00
  0.00000000E+00  0.00000000E+00  0.00000000E+00
  0.00000000E+00  0.00000000E+00  0.00000000E+00
  0.00000000E+00  0.00000000E+00  0.00000000E+00
  0.00000000E+00  0.00000000E+00  0.00000000E+00
  0.00000000E+00  0.00000000E+00  0.00000000E+00
  0.00000000E+00  0.00000000E+00  0.00000000E+00
  0.00000000E+00  0.00000000E+00  0.00000000E+00
  0.00000000E+00  0.00000000E+00  0.00000000E+00
  0.00000000E+00  0.00000000E+00  0.00000000E+00
  0.00000000E+00  0.00000000E+00  0.00000000E+00
  0.00000000E+00  0.00000000E+00  0.00000000E+00
  0.00000000E+00  0.00000000E+00  0.00000000E+00
  0.00000000E+00  0.00000000E+00  0.00000000E+00
  0.00000000E+00  0.00000000E+00  0.00000000E+00
  0.00000000E+00  0.00000000E+00  0.00000000E+00
