# May need to change NELECT, IBRION, NCORE, KPAR, AEXX, ENCUT, NUPDOWN, ISPIN, POTIM = variable parameters
NELECT = 566.0
IBRION = 2
NUPDOWN = 0 # But could be 2 if ya think we got a bit of crazy ferromagnetic shit going down
NCORE = 12
#KPAR = One pal, only one k-point yeh
AEXX = 0.345
ENCUT = 450
POTIM = 0.2
ISPIN = 1
ICORELEVEL = 0 # Needed if using the Kumagai-Oba (eFNV) anisotropic charge correction
# LSUBROT = True # Uncomment this if relaxation doesn't converge
ALGO = Normal
ADDGRID = False
EDIFF = 5e-06
EDIFFG = -0.01
HFSCREEN = 0.2
ICHARG = 1
ISIF = 2
ISYM = 0
ISMEAR = 0
LASPH = True
LHFCALC = True
LORBIT = 11
LREAL = Auto
LVHAR = False
LWAVE = False
NEDOS = 2000
NELM = 100
NSW = 300
PREC = Accurate
PRECFOCK = Fast
SIGMA = 0.05
LSUBROT = False
ROPT = 1e-3 1e-3
