-50.0%_BDM_Distortion_vac_1_Cd[0. 0. 0.]
   1.00000000000000     
    13.0867679999999993    0.0000000000000000    0.0000000000000000
     0.0000000000000000   13.0867679999999993    0.0000000000000000
     0.0000000000000000    0.0000000000000000   13.0867679999999993
   Cd   Te
    31    32
Direct
  0.0013279685920004  0.0080979417116439  0.4975109187815230
  0.0018612769401658  0.5085870530312750 -0.0026777120274148
  0.0001872014179032  0.4905817471908605  0.4963195343639463
  0.5022486888492956  0.0091149770962008 -0.0026499946410648
  0.4994064435190848  0.9985111226134366  0.4977979236701812
  0.5024812289675288  0.4895987291517560 -0.0027093973091440
  0.5012085979336095  0.4996913310736364  0.4967740994523321
  0.0094899164647863  0.2527356006949819  0.2337120688057414
 -0.0058272283931418  0.2531901059121813  0.7586470342580407
  0.0111240968601673  0.7481961947705776  0.2408399138062745
  0.9917522409339578  0.7485074722957316  0.7541403350380009
  0.4990456135913261  0.2466711655275920  0.2430742129809065
  0.5051290216716503  0.2468840105020672  0.7512176365337571
  0.5005222200939008  0.7474041590820645  0.2455732579383194
  0.5008476453143660  0.7476998403541862  0.7479636718685563
  0.2466878272382939  0.9855146423573033  0.2436036472515111
  0.2751403870543742  0.9668949981594348  0.7233113168096160
  0.2597441977964036  0.5055324717510985  0.2546190389102471
  0.2507089396421052  0.4952399770799651  0.7487475005778355
  0.7257038296078363 -0.0326860660103726  0.2731455749698269
  0.7564690494973513  0.9853907096540463  0.7526968367125637
  0.7510609604942949  0.4961066448929219  0.2468301172368986
  0.7434462793721272  0.5072920102625246  0.7395529431098055
  0.2395585780951180  0.2524495632731798  0.0054669574950350
  0.2462848783668788  0.2465121815091986  0.4942496903765195
  0.2445672896843363  0.7499851966079237  0.0069597746641097
  0.2495199767924615  0.7458008956394626  0.4982980279089576
  0.7659733588007356  0.2537826004968327  0.9877731271494943
  0.7560407770039689  0.2469893420803130  0.5002908452396447
  0.7577591957840778  0.7485861037073621 -0.0114649958642611
  0.7522592855753664  0.7487089625645452  0.4968839549956815
  0.1260096716915540  0.1232812546427114  0.3654662085518274
  0.0760815694437014  0.1318044594228199  0.9222791348319102
  0.1249529111396894  0.6212130635180497  0.3758519031061882
  0.1293177425571626  0.6263148233820797  0.8698299407159407
  0.6255344458701875  0.1248183349119515  0.3737347928855190
  0.6340666141377493  0.1238570343920335  0.8718747954219808
  0.6267637597922692  0.6236240109578510  0.3713560918777380
  0.6219254170443651  0.6228804741600172  0.8740160225194330
  0.1310214607147188  0.3916393131913692  0.1260544889881326
  0.1243525156748751  0.3672287348312875  0.6263653283425408
  0.1171842438120289  0.8799364591926020  0.1144278835148666
  0.1197680494187638  0.8707226921941326  0.6201637287033936
  0.6326922584292549  0.3649376777485355  0.1199885516153758
  0.6249762170260706  0.3722355364188590  0.6199733849399311
  0.6241514288133844  0.8715896790515616  0.1162706914116047
  0.6250062717531530  0.8730714920866385  0.6213773055520606
  0.3701556839060765  0.1230226094740929  0.1233775184074983
  0.3751277836527753  0.1250994325968045  0.6235608779386241
  0.3803667784582843  0.6216247353406267  0.1199436342860278
  0.3752009480007196  0.6218043586139815  0.6239788296131157
  0.9274051150877459  0.1307035494497515  0.0705239114587108
  0.8759397411565608  0.1232391539923314  0.6289309912958690
  0.8738020614514823  0.6254989776551538  0.1251426052124615
  0.8774542772833297  0.6229790042535647  0.6175445679812780
  0.3781307381564515  0.3708481646178589  0.3743270880701509
  0.3719082785779644  0.3657039555735447  0.8741301855952229
  0.3764152695538785  0.8709615626626680  0.3742630160936927
  0.3788358580249476  0.8721018586673508  0.8789745584327948
  0.8778432028659398  0.3657315287333034  0.3662377128830330
  0.8735606376354764  0.3928944924694501  0.8664665245571638
  0.8830679680619022  0.8718357290105542  0.3740368146965732
  0.8853023372451757  0.8785311617525454  0.8817170494358818
 
  0.00000000E+00  0.00000000E+00  0.00000000E+00
  0.00000000E+00  0.00000000E+00  0.00000000E+00
  0.00000000E+00  0.00000000E+00  0.00000000E+00
  0.00000000E+00  0.00000000E+00  0.00000000E+00
  0.00000000E+00  0.00000000E+00  0.00000000E+00
  0.00000000E+00  0.00000000E+00  0.00000000E+00
  0.00000000E+00  0.00000000E+00  0.00000000E+00
  0.00000000E+00  0.00000000E+00  0.00000000E+00
  0.00000000E+00  0.00000000E+00  0.00000000E+00
  0.00000000E+00  0.00000000E+00  0.00000000E+00
  0.00000000E+00  0.00000000E+00  0.00000000E+00
  0.00000000E+00  0.00000000E+00  0.00000000E+00
  0.00000000E+00  0.00000000E+00  0.00000000E+00
  0.00000000E+00  0.00000000E+00  0.00000000E+00
  0.00000000E+00  0.00000000E+00  0.00000000E+00
  0.00000000E+00  0.00000000E+00  0.00000000E+00
  0.00000000E+00  0.00000000E+00  0.00000000E+00
  0.00000000E+00  0.00000000E+00  0.00000000E+00
  0.00000000E+00  0.00000000E+00  0.00000000E+00
  0.00000000E+00  0.00000000E+00  0.00000000E+00
  0.00000000E+00  0.00000000E+00  0.00000000E+00
  0.00000000E+00  0.00000000E+00  0.00000000E+00
  0.00000000E+00  0.00000000E+00  0.00000000E+00
  0.00000000E+00  0.00000000E+00  0.00000000E+00
  0.00000000E+00  0.00000000E+00  0.00000000E+00
  0.00000000E+00  0.00000000E+00  0.00000000E+00
  0.00000000E+00  0.00000000E+00  0.00000000E+00
  0.00000000E+00  0.00000000E+00  0.00000000E+00
  0.00000000E+00  0.00000000E+00  0.00000000E+00
  0.00000000E+00  0.00000000E+00  0.00000000E+00
  0.00000000E+00  0.00000000E+00  0.00000000E+00
  0.00000000E+00  0.00000000E+00  0.00000000E+00
  0.00000000E+00  0.00000000E+00  0.00000000E+00
  0.00000000E+00  0.00000000E+00  0.00000000E+00
  0.00000000E+00  0.00000000E+00  0.00000000E+00
  0.00000000E+00  0.00000000E+00  0.00000000E+00
  0.00000000E+00  0.00000000E+00  0.00000000E+00
  0.00000000E+00  0.00000000E+00  0.00000000E+00
  0.00000000E+00  0.00000000E+00  0.00000000E+00
  0.00000000E+00  0.00000000E+00  0.00000000E+00
  0.00000000E+00  0.00000000E+00  0.00000000E+00
  0.00000000E+00  0.00000000E+00  0.00000000E+00
  0.00000000E+00  0.00000000E+00  0.00000000E+00
  0.00000000E+00  0.00000000E+00  0.00000000E+00
  0.00000000E+00  0.00000000E+00  0.00000000E+00
  0.00000000E+00  0.00000000E+00  0.00000000E+00
  0.00000000E+00  0.00000000E+00  0.00000000E+00
  0.00000000E+00  0.00000000E+00  0.00000000E+00
  0.00000000E+00  0.00000000E+00  0.00000000E+00
  0.00000000E+00  0.00000000E+00  0.00000000E+00
  0.00000000E+00  0.00000000E+00  0.00000000E+00
  0.00000000E+00  0.00000000E+00  0.00000000E+00
  0.00000000E+00  0.00000000E+00  0.00000000E+00
  0.00000000E+00  0.00000000E+00  0.00000000E+00
  0.00000000E+00  0.00000000E+00  0.00000000E+00
  0.00000000E+00  0.00000000E+00  0.00000000E+00
  0.00000000E+00  0.00000000E+00  0.00000000E+00
  0.00000000E+00  0.00000000E+00  0.00000000E+00
  0.00000000E+00  0.00000000E+00  0.00000000E+00
  0.00000000E+00  0.00000000E+00  0.00000000E+00
  0.00000000E+00  0.00000000E+00  0.00000000E+00
  0.00000000E+00  0.00000000E+00  0.00000000E+00
  0.00000000E+00  0.00000000E+00  0.00000000E+00
