Sr16 Cu32 O31                           
   1.0000000000000000     
     0.0000000000000000   10.7468629999999994    0.0000000000000000
   -10.7468629999999994    0.0000000000000000    0.0000000000000000
     0.0000000000000000    0.0000000000000000    9.7925889999999995
   Sr   Cu   O 
    16    32    31
Direct
  0.9990063925340664  0.2321865759851650  0.2467206694793023
  0.5026681640086770  0.2446596620548992  0.2475213052613703
  0.9992817351260946  0.7583992593264650  0.2466703377967283
  0.5027836522171735  0.7455537584569950  0.2475835543384985
  0.2519250632157091  0.9952768034668155  0.7483992651811849
  0.7497259931170882  0.9953143519549226  0.7491397858034929
  0.2544468645806510  0.4953862130816586  0.7475879472120198
  0.7504120717632093  0.4954094447088703  0.7510678660883262
  0.9997919774854412  0.4954836577711375  0.5028116304807556
  0.5028896527019595  0.4953203484552185  0.4956513141924504
  0.0007980814745964  0.9956284555819918  0.5014248634643241
  0.5009985318935475  0.9954463101394394  0.4990076684379550
  0.2512576519751657  0.2476251676666288  0.9971990284308351
  0.7514427422549289  0.2486102648230839  0.9984317416486814
  0.2513644406949202  0.7428415612258612  0.9971430720114742
  0.7515500624834751  0.7415484329853890  0.9983843705948480
  0.2416817895042562  0.3739285820041386  0.3654931388848276
  0.7553290105193556  0.3704705729938831  0.3735616510080834
  0.2506364883136760  0.8691745298078315  0.3741147941328926
  0.7508546473831628  0.8699144479882175  0.3750195770564727
  0.5009597708457885  0.1206086480534185  0.8736060851905156
  0.0006070891404960  0.1205565365726717  0.8738928076026167
  0.5015645000386122  0.6191660402157212  0.8727552844935561
  0.0034162421429913  0.6204353189821962  0.8712456980330248
  0.3897630122776857  0.4951818280140348  0.1131647818685295
  0.9342794690178526  0.4948724591423886  0.0789351017763071
  0.3762171465560808  0.9949331144845621  0.1240122338871690
  0.8765065139171473  0.9951385351839418  0.1183462500983296
  0.6260174627552476  0.2464448404772679  0.6228571208213329
  0.1258626749500956  0.2462009073833874  0.6221346880395711
  0.6261444742600469  0.7443212261994254  0.6229213696874984
  0.1259262452396247  0.7448874467396541  0.6219600614012245
  0.2416838584372470  0.6167435657508384  0.3651735553835667
  0.7556304719398498  0.6203163842459510  0.3735211668986552
  0.2504654359061604  0.1216538306117348  0.3742043413327230
  0.7506261141488376  0.1208370345745895  0.3752540559807864
  0.5014824942401008  0.3706172840484093  0.8726081878921136
  0.0032878129812707  0.3700126480987633  0.8709450756557898
  0.5010251545575500  0.8693198477049945  0.8732568456676209
  0.0006699065595024  0.8701367600700215  0.8740137001514143
  0.1506404199646045  0.4951945522035729  0.1611027558176682
  0.6452565582131351  0.4950592153673072  0.1321014294991499
  0.1268862571833767  0.9952733109706865  0.1198757002040944
  0.6260261604757011  0.9949591117502889  0.1235249759823497
  0.3759795146094798  0.2459772661485761  0.6229227574870648
  0.8758748942453556  0.2462012292880625  0.6215115155646213
  0.3761505928687432  0.7446924948208591  0.6230455644397934
  0.8759916646846280  0.7446660937704879  0.6210310257563583
  0.5098466515023844  0.4951855457672562  0.2456164463383680
  0.0011905283140326  0.9953909683598964  0.2459354091208601
  0.5011510706978383  0.9948820048980760  0.2492575947965330
  0.2505204874305438  0.2467294170251392  0.7479547539158968
  0.7516564696339161  0.2468390790923234  0.7482405825513923
  0.2504815666047338  0.7440265619457742  0.7478980041043385
  0.7519922300839132  0.7437282495047407  0.7480465070618579
  0.0009914241386428  0.2464970430586491  0.9984483668090157
  0.5009607038853844  0.2463535678430520  0.9986307372188667
  0.0011565522816499  0.7440905655713922  0.9984962172395604
  0.5010193338437762  0.7436961679207947  0.9985087918551858
  0.2513123280080990  0.9953790562057410  0.4981860409621788
  0.7511045124643498  0.9952925987951011  0.4997280538018075
  0.2460740121318802  0.4954346034576357  0.4945826768817616
  0.7569299205927726  0.4953624388033371  0.4991450962520722
  0.0013436927550763  0.2474702018271084  0.4955880611751386
  0.5005509074080449  0.2472896543309318  0.4969635618025390
  0.0015542115126114  0.7435117656866597  0.4952969450269044
  0.5006910214323975  0.7433971961686715  0.4970892049903298
  0.2528142017411450  0.9951519731380181  0.9969399143013018
  0.7497194705785878  0.9949774204199672  0.9968813413789651
  0.2544420106264148  0.4952228534284807  0.0009905483654938
  0.7692737340069057  0.4950316866758498  0.0050425457687480
  0.0052755732443229  0.4954002447036975  0.7451299487116259
  0.5032753234413516  0.4949711659438625  0.7459715417956096
  0.0009196250594229  0.9952876669011935  0.7485178800264842
  0.5004764159086673  0.9950952580921609  0.7484533465343752
  0.2464078794026798  0.2453014699174113  0.2465672366279956
  0.7531911496139321  0.2452244000824160  0.2487391605280930
  0.2465247173243118  0.7454904137140267  0.2464684157873761
  0.7534783489258424  0.7453988293682220  0.2486013501513689

  0.00000000E+00  0.00000000E+00  0.00000000E+00
  0.00000000E+00  0.00000000E+00  0.00000000E+00
  0.00000000E+00  0.00000000E+00  0.00000000E+00
  0.00000000E+00  0.00000000E+00  0.00000000E+00
  0.00000000E+00  0.00000000E+00  0.00000000E+00
  0.00000000E+00  0.00000000E+00  0.00000000E+00
  0.00000000E+00  0.00000000E+00  0.00000000E+00
  0.00000000E+00  0.00000000E+00  0.00000000E+00
  0.00000000E+00  0.00000000E+00  0.00000000E+00
  0.00000000E+00  0.00000000E+00  0.00000000E+00
  0.00000000E+00  0.00000000E+00  0.00000000E+00
  0.00000000E+00  0.00000000E+00  0.00000000E+00
  0.00000000E+00  0.00000000E+00  0.00000000E+00
  0.00000000E+00  0.00000000E+00  0.00000000E+00
  0.00000000E+00  0.00000000E+00  0.00000000E+00
  0.00000000E+00  0.00000000E+00  0.00000000E+00
  0.00000000E+00  0.00000000E+00  0.00000000E+00
  0.00000000E+00  0.00000000E+00  0.00000000E+00
  0.00000000E+00  0.00000000E+00  0.00000000E+00
  0.00000000E+00  0.00000000E+00  0.00000000E+00
  0.00000000E+00  0.00000000E+00  0.00000000E+00
  0.00000000E+00  0.00000000E+00  0.00000000E+00
  0.00000000E+00  0.00000000E+00  0.00000000E+00
  0.00000000E+00  0.00000000E+00  0.00000000E+00
  0.00000000E+00  0.00000000E+00  0.00000000E+00
  0.00000000E+00  0.00000000E+00  0.00000000E+00
  0.00000000E+00  0.00000000E+00  0.00000000E+00
  0.00000000E+00  0.00000000E+00  0.00000000E+00
  0.00000000E+00  0.00000000E+00  0.00000000E+00
  0.00000000E+00  0.00000000E+00  0.00000000E+00
  0.00000000E+00  0.00000000E+00  0.00000000E+00
  0.00000000E+00  0.00000000E+00  0.00000000E+00
  0.00000000E+00  0.00000000E+00  0.00000000E+00
  0.00000000E+00  0.00000000E+00  0.00000000E+00
  0.00000000E+00  0.00000000E+00  0.00000000E+00
  0.00000000E+00  0.00000000E+00  0.00000000E+00
  0.00000000E+00  0.00000000E+00  0.00000000E+00
  0.00000000E+00  0.00000000E+00  0.00000000E+00
  0.00000000E+00  0.00000000E+00  0.00000000E+00
  0.00000000E+00  0.00000000E+00  0.00000000E+00
  0.00000000E+00  0.00000000E+00  0.00000000E+00
  0.00000000E+00  0.00000000E+00  0.00000000E+00
  0.00000000E+00  0.00000000E+00  0.00000000E+00
  0.00000000E+00  0.00000000E+00  0.00000000E+00
  0.00000000E+00  0.00000000E+00  0.00000000E+00
  0.00000000E+00  0.00000000E+00  0.00000000E+00
  0.00000000E+00  0.00000000E+00  0.00000000E+00
  0.00000000E+00  0.00000000E+00  0.00000000E+00
  0.00000000E+00  0.00000000E+00  0.00000000E+00
  0.00000000E+00  0.00000000E+00  0.00000000E+00
  0.00000000E+00  0.00000000E+00  0.00000000E+00
  0.00000000E+00  0.00000000E+00  0.00000000E+00
  0.00000000E+00  0.00000000E+00  0.00000000E+00
  0.00000000E+00  0.00000000E+00  0.00000000E+00
  0.00000000E+00  0.00000000E+00  0.00000000E+00
  0.00000000E+00  0.00000000E+00  0.00000000E+00
  0.00000000E+00  0.00000000E+00  0.00000000E+00
  0.00000000E+00  0.00000000E+00  0.00000000E+00
  0.00000000E+00  0.00000000E+00  0.00000000E+00
  0.00000000E+00  0.00000000E+00  0.00000000E+00
  0.00000000E+00  0.00000000E+00  0.00000000E+00
  0.00000000E+00  0.00000000E+00  0.00000000E+00
  0.00000000E+00  0.00000000E+00  0.00000000E+00
  0.00000000E+00  0.00000000E+00  0.00000000E+00
  0.00000000E+00  0.00000000E+00  0.00000000E+00
  0.00000000E+00  0.00000000E+00  0.00000000E+00
  0.00000000E+00  0.00000000E+00  0.00000000E+00
  0.00000000E+00  0.00000000E+00  0.00000000E+00
  0.00000000E+00  0.00000000E+00  0.00000000E+00
  0.00000000E+00  0.00000000E+00  0.00000000E+00
  0.00000000E+00  0.00000000E+00  0.00000000E+00
  0.00000000E+00  0.00000000E+00  0.00000000E+00
  0.00000000E+00  0.00000000E+00  0.00000000E+00
  0.00000000E+00  0.00000000E+00  0.00000000E+00
  0.00000000E+00  0.00000000E+00  0.00000000E+00
  0.00000000E+00  0.00000000E+00  0.00000000E+00
  0.00000000E+00  0.00000000E+00  0.00000000E+00
  0.00000000E+00  0.00000000E+00  0.00000000E+00
  0.00000000E+00  0.00000000E+00  0.00000000E+00
