-5.0%_Bond__vac_1_Cd[0. 0. 0.]_-dNELECT=
   1.0000000000000000     
    13.0867679999999993    0.0000000000000000    0.0000000000000000
     0.0000000000000000   13.0867679999999993    0.0000000000000000
     0.0000000000000000    0.0000000000000000   13.0867679999999993
   Cd   Te
    31    32
Direct
  0.0036095854541701  0.0046524144906071  0.4960349031147653
  0.0037738059023431  0.5046313968204422 -0.0039312978598296
  0.0033386957781729  0.5042473186708284  0.4956558071442531
  0.5034447081174661  0.0044201543473431  0.9958543636584638
  0.5037026804670831  0.0038461476334551  0.4957812341734185
  0.5036655392629019  0.5037522492103556  0.9958082905845612
  0.5034646877263114  0.5043754458680318  0.4958629607947913
  0.9963064678132921  0.2500033252060931  0.2415932031511990
  0.0110193919536133  0.2506237664565893  0.7499733330148273
  0.0115765694944094  0.7586205387003429  0.2417716404738993
  0.9961362445648382  0.7582568653156745  0.7500355430655051
  0.5029325172338500  0.2521196814435537  0.2441177658238093
  0.5046848778383167  0.2516682347235203  0.7477252007364449
  0.5046643890714383  0.7558939672582561  0.2440306599906864
  0.5028314042093381  0.7560071109532367  0.7478752353961513
  0.2469712846121145  0.9998410525349495  0.2416200839501905
  0.2470093277184682  0.0080802544148799  0.7503877910303288
  0.2540245581763463  0.5040541604937953  0.2450921369547461
  0.2539539822488576  0.5042872565094314  0.7469504030054293
  0.7605888716198536  0.0079196776134751  0.2412858693657566
  0.7605464554605524 -0.0000514155583676  0.7500998028357801
  0.7536698262623790  0.5044013638996437  0.2447138902332975
  0.7531221648663854  0.5040674247651995  0.7468534839531797
  0.2469852533523030  0.2502760190588973  0.9925626186881044
  0.2537483024151823  0.2530051395420963  0.4954684128281729
  0.2470480677391444  0.7583082515147420  0.0001952645073059
  0.2536219419723751  0.7554249765721748  0.4964949662001469
  0.7607017001743974  0.2502093675446445  0.9994688732857171
  0.7531422676515093  0.2530149739021806  0.4964576912536021
  0.7604518074290959  0.7585351561849075 -0.0079152544585118
  0.7535835781845789  0.7553921199065827  0.4953204946699718
  0.1281939956254599  0.1298467927515956  0.3697401227342965
  0.1193753883696755  0.1211362867119508  0.8795314750640905
  0.1298377769168867  0.6293347807188072  0.3710723297554908
  0.1283913301996878  0.6301493396966499  0.8701138829425166
  0.6293376984622868  0.1280054870734077  0.3693021072230877
  0.6313241392237792  0.1280877310495765  0.8719013452087135
  0.6281133153035366  0.6296645572401494  0.3702656371103465
  0.6290576356800188  0.6308016713301963  0.8720157468506526
  0.1280566142776806  0.3786503584922776  0.1218681174588147
  0.1298924526799841  0.3795391767325546  0.6204022471439982
  0.1191434563934935  0.8881964225525579  0.1117733855358998
  0.1279243879896458  0.8788745307227992  0.6220558560702337
  0.6292744847870664  0.3775123704515612  0.1198994557846539
  0.6275217710857964  0.3787158895710304  0.6214697893142823
  0.6309397876499627  0.8803073670104413  0.1198405931251112
  0.6292138945406691  0.8800256916945579  0.6223195258229141
  0.3761189220677741  0.1282753265798134  0.1201109738939075
  0.3781158552013143  0.1280845700644128  0.6222380103222279
  0.3784639914444258  0.6304349853197315  0.1199287740168844
  0.3793502967499910  0.6299440359066962  0.6214683916007677
  0.8883295968033343  0.1205610290053194  0.1117665219472554
  0.8791226458397796  0.1301238880373897  0.6220479330269826
  0.8793698243353243  0.6304410269102911  0.1217364649961606
  0.8773702810180499  0.6292445947224893  0.6206904282467117
  0.3795391035352544  0.3786221495038768  0.3703774053426881
  0.3782983195214493  0.3772592518117154  0.8716056048893271
  0.3782685301504744  0.8799310562405877  0.3694260602953666
  0.3761663369672679  0.8801900879568418  0.8719684862600138
  0.8773625331084838  0.3789816518174801  0.3709489798800085
  0.8792917342231916  0.3788826030481386  0.8701143508507200
  0.8794881703631440  0.8788073397349937  0.3698538878188212
  0.8882697747140489  0.8879275535425463  0.8796007379009092

  0.00000000E+00  0.00000000E+00  0.00000000E+00
  0.00000000E+00  0.00000000E+00  0.00000000E+00
  0.00000000E+00  0.00000000E+00  0.00000000E+00
  0.00000000E+00  0.00000000E+00  0.00000000E+00
  0.00000000E+00  0.00000000E+00  0.00000000E+00
  0.00000000E+00  0.00000000E+00  0.00000000E+00
  0.00000000E+00  0.00000000E+00  0.00000000E+00
  0.00000000E+00  0.00000000E+00  0.00000000E+00
  0.00000000E+00  0.00000000E+00  0.00000000E+00
  0.00000000E+00  0.00000000E+00  0.00000000E+00
  0.00000000E+00  0.00000000E+00  0.00000000E+00
  0.00000000E+00  0.00000000E+00  0.00000000E+00
  0.00000000E+00  0.00000000E+00  0.00000000E+00
  0.00000000E+00  0.00000000E+00  0.00000000E+00
  0.00000000E+00  0.00000000E+00  0.00000000E+00
  0.00000000E+00  0.00000000E+00  0.00000000E+00
  0.00000000E+00  0.00000000E+00  0.00000000E+00
  0.00000000E+00  0.00000000E+00  0.00000000E+00
  0.00000000E+00  0.00000000E+00  0.00000000E+00
  0.00000000E+00  0.00000000E+00  0.00000000E+00
  0.00000000E+00  0.00000000E+00  0.00000000E+00
  0.00000000E+00  0.00000000E+00  0.00000000E+00
  0.00000000E+00  0.00000000E+00  0.00000000E+00
  0.00000000E+00  0.00000000E+00  0.00000000E+00
  0.00000000E+00  0.00000000E+00  0.00000000E+00
  0.00000000E+00  0.00000000E+00  0.00000000E+00
  0.00000000E+00  0.00000000E+00  0.00000000E+00
  0.00000000E+00  0.00000000E+00  0.00000000E+00
  0.00000000E+00  0.00000000E+00  0.00000000E+00
  0.00000000E+00  0.00000000E+00  0.00000000E+00
  0.00000000E+00  0.00000000E+00  0.00000000E+00
  0.00000000E+00  0.00000000E+00  0.00000000E+00
  0.00000000E+00  0.00000000E+00  0.00000000E+00
  0.00000000E+00  0.00000000E+00  0.00000000E+00
  0.00000000E+00  0.00000000E+00  0.00000000E+00
  0.00000000E+00  0.00000000E+00  0.00000000E+00
  0.00000000E+00  0.00000000E+00  0.00000000E+00
  0.00000000E+00  0.00000000E+00  0.00000000E+00
  0.00000000E+00  0.00000000E+00  0.00000000E+00
  0.00000000E+00  0.00000000E+00  0.00000000E+00
  0.00000000E+00  0.00000000E+00  0.00000000E+00
  0.00000000E+00  0.00000000E+00  0.00000000E+00
  0.00000000E+00  0.00000000E+00  0.00000000E+00
  0.00000000E+00  0.00000000E+00  0.00000000E+00
  0.00000000E+00  0.00000000E+00  0.00000000E+00
  0.00000000E+00  0.00000000E+00  0.00000000E+00
  0.00000000E+00  0.00000000E+00  0.00000000E+00
  0.00000000E+00  0.00000000E+00  0.00000000E+00
  0.00000000E+00  0.00000000E+00  0.00000000E+00
  0.00000000E+00  0.00000000E+00  0.00000000E+00
  0.00000000E+00  0.00000000E+00  0.00000000E+00
  0.00000000E+00  0.00000000E+00  0.00000000E+00
  0.00000000E+00  0.00000000E+00  0.00000000E+00
  0.00000000E+00  0.00000000E+00  0.00000000E+00
  0.00000000E+00  0.00000000E+00  0.00000000E+00
  0.00000000E+00  0.00000000E+00  0.00000000E+00
  0.00000000E+00  0.00000000E+00  0.00000000E+00
  0.00000000E+00  0.00000000E+00  0.00000000E+00
  0.00000000E+00  0.00000000E+00  0.00000000E+00
  0.00000000E+00  0.00000000E+00  0.00000000E+00
  0.00000000E+00  0.00000000E+00  0.00000000E+00
  0.00000000E+00  0.00000000E+00  0.00000000E+00
  0.00000000E+00  0.00000000E+00  0.00000000E+00
