vac_1_Cd[0. 0. 0.]_KV=-dNELECT=0        
   1.00000000000000     
    13.0867679999999993    0.0000000000000000    0.0000000000000000
     0.0000000000000000   13.0867679999999993    0.0000000000000000
     0.0000000000000000    0.0000000000000000   13.0867679999999993
   Cd   Te
    31    32
Direct
  0.0005855277067148 -0.0000363893948009  0.5000405054627378
  0.0006104582625363  0.4999672214317290  0.0002853556905645
 -0.0003363102804133  0.5002490540160768  0.4997128390316983
  0.5000136507540195  0.0001009714661362  0.0002100105128532
  0.5002208541651254 -0.0002273720816575  0.4995631564607963
  0.4996387078772682  0.5004060726434041  0.0002728193293042
  0.5005910210065616  0.4999985960587690  0.5000159134298064
 -0.0053278850717548  0.2430652393238745  0.2459426825111535
  0.0037758166948233  0.2434050299751189  0.7544514099503533
  0.0029724344093025  0.7565102768405925  0.2458874664077395
 -0.0054300271932239  0.7568742990080678  0.7541757744965510
  0.4990965127389074  0.2502557307514297  0.2491527088803022
  0.5005853071638481  0.2500463741304920  0.7515581935282469
  0.5001373138343634  0.7502798683122800  0.2483570172201338
  0.4994438900628995  0.7499457303422821  0.7508615901368298
  0.2455970291862553 -0.0069163369385075  0.2458923822830076
  0.2459777466347837  0.0070188527845916  0.7538850067889309
  0.2476282963265102  0.4988819883754411  0.2479340132977614
  0.2475219021995642  0.5012286372073423  0.7521041532712137
  0.7544492200170587  0.0075266968053289  0.2453513067174835
  0.7545086657838663 -0.0075996999766171  0.7546575276081808
  0.7518386163842861  0.5010801182618065  0.2474216307664787
  0.7520425304516029  0.4984826153130624  0.7523310616104847
  0.2461528933857410  0.2437239030940721 -0.0037059581575856
  0.2486769787176372  0.2499708294144282  0.4998109604321576
  0.2456964125043163  0.7567980679884051  0.0035460070076552
  0.2484665039679262  0.7497708399334583  0.5006125947658987
  0.7542972208206479  0.2428864399377953  0.0048513659180794
  0.7512922533466527  0.2496241086789603  0.5005011784202137
  0.7542040635133520  0.7570303890067960 -0.0052272465557443
  0.7509845990699713  0.7496871313518264  0.4993749102515967
  0.1255223456169129  0.1247414744625506  0.3739754376546301
  0.1172335672532667  0.1156799708565588  0.8838815066738694
  0.1240670684254794  0.6257702166797855  0.3731991255320996
  0.1238255467947144  0.6278924372505428  0.8757848666113250
  0.6252803242125269  0.1260417579733746  0.3747092728889165
  0.6261850362716603  0.1244921840940401  0.8748323652620629
  0.6254711441288768  0.6245043079049828  0.3740220423304216
  0.6262185533290864  0.6251912024622532  0.8755334568787942
  0.1239709485542475  0.3721077884290190  0.1245505184257916
  0.1241484343796962  0.3745492973677430  0.6263138554144391
  0.1163888225529111  0.8840888812467358  0.1166320454094228
  0.1255049351887656  0.8751469991864345  0.6261496359039140
  0.6260790193330273  0.3744901451007386  0.1242517639683921
  0.6258700649933086  0.3753683973975261  0.6256312118984154
  0.6261907788853042  0.8755018012305832  0.1251952869425529
  0.6253970899734629  0.8739302935711944  0.6249622176423013
  0.3742263784408326  0.1243723611818392  0.1257689890325288
  0.3754223763455162  0.1260670278761840  0.6249997712741584
  0.3731807834203461  0.6257702010413803  0.1241314183572114
  0.3745550272390274  0.6240222826173227  0.6253874059474029
  0.8848864012353121  0.1147523416442369  0.1157470853067580
  0.8749026217838098  0.1243243079533723  0.6261510965277970
  0.8759498368251223  0.6277600758555286  0.1235425597119693
  0.8755017090882176  0.6250920282468262  0.6262090809779673
  0.3744563188509227  0.3759464234637820  0.3747692235936249
  0.3737591046565539  0.3748084492368743  0.8757337950945746
  0.3746840541593707  0.8738976150729602  0.3748110347203597
  0.3743073474952700  0.8756680522121196  0.8743240869144124
  0.8755072179694324  0.3748566041423970  0.3738003300847167
  0.8761900934159146  0.3722020378497206  0.8765728111842204
  0.8743304265386765  0.8757644967523707  0.3742230566921388
  0.8848744182012788  0.8851632555770380  0.8843753076679272
 
  0.00000000E+00  0.00000000E+00  0.00000000E+00
  0.00000000E+00  0.00000000E+00  0.00000000E+00
  0.00000000E+00  0.00000000E+00  0.00000000E+00
  0.00000000E+00  0.00000000E+00  0.00000000E+00
  0.00000000E+00  0.00000000E+00  0.00000000E+00
  0.00000000E+00  0.00000000E+00  0.00000000E+00
  0.00000000E+00  0.00000000E+00  0.00000000E+00
  0.00000000E+00  0.00000000E+00  0.00000000E+00
  0.00000000E+00  0.00000000E+00  0.00000000E+00
  0.00000000E+00  0.00000000E+00  0.00000000E+00
  0.00000000E+00  0.00000000E+00  0.00000000E+00
  0.00000000E+00  0.00000000E+00  0.00000000E+00
  0.00000000E+00  0.00000000E+00  0.00000000E+00
  0.00000000E+00  0.00000000E+00  0.00000000E+00
  0.00000000E+00  0.00000000E+00  0.00000000E+00
  0.00000000E+00  0.00000000E+00  0.00000000E+00
  0.00000000E+00  0.00000000E+00  0.00000000E+00
  0.00000000E+00  0.00000000E+00  0.00000000E+00
  0.00000000E+00  0.00000000E+00  0.00000000E+00
  0.00000000E+00  0.00000000E+00  0.00000000E+00
  0.00000000E+00  0.00000000E+00  0.00000000E+00
  0.00000000E+00  0.00000000E+00  0.00000000E+00
  0.00000000E+00  0.00000000E+00  0.00000000E+00
  0.00000000E+00  0.00000000E+00  0.00000000E+00
  0.00000000E+00  0.00000000E+00  0.00000000E+00
  0.00000000E+00  0.00000000E+00  0.00000000E+00
  0.00000000E+00  0.00000000E+00  0.00000000E+00
  0.00000000E+00  0.00000000E+00  0.00000000E+00
  0.00000000E+00  0.00000000E+00  0.00000000E+00
  0.00000000E+00  0.00000000E+00  0.00000000E+00
  0.00000000E+00  0.00000000E+00  0.00000000E+00
  0.00000000E+00  0.00000000E+00  0.00000000E+00
  0.00000000E+00  0.00000000E+00  0.00000000E+00
  0.00000000E+00  0.00000000E+00  0.00000000E+00
  0.00000000E+00  0.00000000E+00  0.00000000E+00
  0.00000000E+00  0.00000000E+00  0.00000000E+00
  0.00000000E+00  0.00000000E+00  0.00000000E+00
  0.00000000E+00  0.00000000E+00  0.00000000E+00
  0.00000000E+00  0.00000000E+00  0.00000000E+00
  0.00000000E+00  0.00000000E+00  0.00000000E+00
  0.00000000E+00  0.00000000E+00  0.00000000E+00
  0.00000000E+00  0.00000000E+00  0.00000000E+00
  0.00000000E+00  0.00000000E+00  0.00000000E+00
  0.00000000E+00  0.00000000E+00  0.00000000E+00
  0.00000000E+00  0.00000000E+00  0.00000000E+00
  0.00000000E+00  0.00000000E+00  0.00000000E+00
  0.00000000E+00  0.00000000E+00  0.00000000E+00
  0.00000000E+00  0.00000000E+00  0.00000000E+00
  0.00000000E+00  0.00000000E+00  0.00000000E+00
  0.00000000E+00  0.00000000E+00  0.00000000E+00
  0.00000000E+00  0.00000000E+00  0.00000000E+00
  0.00000000E+00  0.00000000E+00  0.00000000E+00
  0.00000000E+00  0.00000000E+00  0.00000000E+00
  0.00000000E+00  0.00000000E+00  0.00000000E+00
  0.00000000E+00  0.00000000E+00  0.00000000E+00
  0.00000000E+00  0.00000000E+00  0.00000000E+00
  0.00000000E+00  0.00000000E+00  0.00000000E+00
  0.00000000E+00  0.00000000E+00  0.00000000E+00
  0.00000000E+00  0.00000000E+00  0.00000000E+00
  0.00000000E+00  0.00000000E+00  0.00000000E+00
  0.00000000E+00  0.00000000E+00  0.00000000E+00
  0.00000000E+00  0.00000000E+00  0.00000000E+00
  0.00000000E+00  0.00000000E+00  0.00000000E+00
