50.0%_BDM_Distortion_vac_1_Cd[0. 0. 0.]_
   1.00000000000000     
    13.0867679999999993    0.0000000000000000    0.0000000000000000
     0.0000000000000000   13.0867679999999993    0.0000000000000000
     0.0000000000000000    0.0000000000000000   13.0867679999999993
   Cd   Te
    31    32
Direct
  0.0027670648440673  0.9968926722964290  0.5003758009426253
  0.0027259151157970  0.4969145095670402 -0.0006655558427215
  0.0020675914203021  0.4969129993485855  0.4997735526938780
  0.5027688062574015  0.9971166232426373 -0.0006274837907161
  0.5021293552139632  0.9966343530592116  0.4999629279394801
  0.5030315312055531  0.4961647531411352 -0.0003798970369707
  0.5026962374891389  0.4973181670704162  0.4991260937192160
  0.9952715224721145  0.2423222023361387  0.2444898723074098
  0.0086891835382182  0.2411806348096304  0.7565387964969001
  0.0058999732751132  0.7513505493900683  0.2443121378188002
  0.9968419372554308  0.7530575954569044  0.7569991732478784
  0.5014773102511848  0.2453755187063850  0.2497350754894768
  0.5019056704102426  0.2456323556358085  0.7508179427802445
  0.5032832141579655  0.7487745396169014  0.2491500479315470
  0.5025368538200919  0.7474103690944914  0.7505187909503314
  0.2468918463871758 -0.0075101626400445  0.2454251343054167
  0.2471358160241554  0.0026461688057102  0.7563965566761366
  0.2510605891683516  0.4963483327217958  0.2486372768397098
  0.2508777191660431  0.4967407820362295  0.7511024829681469
  0.7573078881501273  0.0044345466954604  0.2448812159105214
  0.7576253987190897  0.9928589684890163  0.7561817845875427
  0.7525987597211126  0.4972919249067958  0.2489747295341802
  0.7543084118299995  0.4965334534440539  0.7504055599364434
  0.2471983589075436  0.2417277680424457 -0.0059356063233816
  0.2510125034229293  0.2457724954906033  0.4998111547065390
  0.2489445196770486  0.7514534125491401  0.0067274502024768
  0.2504788200966896  0.7472108089696353  0.5012282616746532
  0.7584524932075489  0.2416935718619507  0.0078583238509393
  0.7532163346894157  0.2464468115607128  0.5018487298359554
  0.7566302866447124  0.7525900569780120 -0.0063149696904123
  0.7544556425770321  0.7492060054305677  0.5001042612975928
  0.1262532501865344  0.1221051085846256  0.3737246285389832
  0.1189885774421044  0.1123194282732050  0.8852473993760446
  0.1264789024387724  0.6223418096152327  0.3740752143896666
  0.1279831885277656  0.6237408677800208  0.8754477233771161
  0.6277189587435942  0.1218477110305704  0.3758967743571588
  0.6291249475526934  0.1229659541226110  0.8754109515074717
  0.6283954272803550  0.6232991953811672  0.3752593139914448
  0.6282290774507179  0.6215417838650991  0.8749741138036068
  0.1268215751782781  0.3702446512696199  0.1249169898784762
  0.1264227577143713  0.3710587270578898  0.6254044002506951
  0.1198522636061297  0.8788269412312170  0.1173214343872353
  0.1268744818162701  0.8722139824686571  0.6268842880984439
  0.6272619010587469  0.3706569848194962  0.1252599994977033
  0.6268370195567406  0.3719886467835165  0.6256655366682232
  0.6289629930166735  0.8730985582953170  0.1252434177489949
  0.6284999933870284  0.8730134244553455  0.6258983880209562
  0.3758946492808702  0.1212500671863849  0.1249957558234171
  0.3763447338717942  0.1210265104832095  0.6253333901757614
  0.3783424452780144  0.6214776151379877  0.1251923536405328
  0.3768745612169899  0.6213668847604362  0.6250123733331253
  0.8870858465915827  0.1119835465790227  0.1160635012393206
  0.8781616515431744  0.1218343122672698  0.6267223929377690
  0.8765066690618081  0.6225815175162840  0.1240321949124593
  0.8786609645357070  0.6233323294493014  0.6257403387573268
  0.3766690434887117  0.3715553591358297  0.3750635770738120
  0.3766666003998906  0.3712907959167935  0.8753390068893612
  0.3759977376750590  0.8717843394362489  0.3749553781423358
  0.3765796987249276  0.8715146654752304  0.8750091518542258
  0.8766846856568900  0.3715088913353259  0.3750503403702500
  0.8775692186492186  0.3698752895890509  0.8750475250448239
  0.8776847026139953  0.8733348958980481  0.3734797440657930
  0.8858349213390012  0.8813234166861322  0.8850567798876050
 
  0.00000000E+00  0.00000000E+00  0.00000000E+00
  0.00000000E+00  0.00000000E+00  0.00000000E+00
  0.00000000E+00  0.00000000E+00  0.00000000E+00
  0.00000000E+00  0.00000000E+00  0.00000000E+00
  0.00000000E+00  0.00000000E+00  0.00000000E+00
  0.00000000E+00  0.00000000E+00  0.00000000E+00
  0.00000000E+00  0.00000000E+00  0.00000000E+00
  0.00000000E+00  0.00000000E+00  0.00000000E+00
  0.00000000E+00  0.00000000E+00  0.00000000E+00
  0.00000000E+00  0.00000000E+00  0.00000000E+00
  0.00000000E+00  0.00000000E+00  0.00000000E+00
  0.00000000E+00  0.00000000E+00  0.00000000E+00
  0.00000000E+00  0.00000000E+00  0.00000000E+00
  0.00000000E+00  0.00000000E+00  0.00000000E+00
  0.00000000E+00  0.00000000E+00  0.00000000E+00
  0.00000000E+00  0.00000000E+00  0.00000000E+00
  0.00000000E+00  0.00000000E+00  0.00000000E+00
  0.00000000E+00  0.00000000E+00  0.00000000E+00
  0.00000000E+00  0.00000000E+00  0.00000000E+00
  0.00000000E+00  0.00000000E+00  0.00000000E+00
  0.00000000E+00  0.00000000E+00  0.00000000E+00
  0.00000000E+00  0.00000000E+00  0.00000000E+00
  0.00000000E+00  0.00000000E+00  0.00000000E+00
  0.00000000E+00  0.00000000E+00  0.00000000E+00
  0.00000000E+00  0.00000000E+00  0.00000000E+00
  0.00000000E+00  0.00000000E+00  0.00000000E+00
  0.00000000E+00  0.00000000E+00  0.00000000E+00
  0.00000000E+00  0.00000000E+00  0.00000000E+00
  0.00000000E+00  0.00000000E+00  0.00000000E+00
  0.00000000E+00  0.00000000E+00  0.00000000E+00
  0.00000000E+00  0.00000000E+00  0.00000000E+00
  0.00000000E+00  0.00000000E+00  0.00000000E+00
  0.00000000E+00  0.00000000E+00  0.00000000E+00
  0.00000000E+00  0.00000000E+00  0.00000000E+00
  0.00000000E+00  0.00000000E+00  0.00000000E+00
  0.00000000E+00  0.00000000E+00  0.00000000E+00
  0.00000000E+00  0.00000000E+00  0.00000000E+00
  0.00000000E+00  0.00000000E+00  0.00000000E+00
  0.00000000E+00  0.00000000E+00  0.00000000E+00
  0.00000000E+00  0.00000000E+00  0.00000000E+00
  0.00000000E+00  0.00000000E+00  0.00000000E+00
  0.00000000E+00  0.00000000E+00  0.00000000E+00
  0.00000000E+00  0.00000000E+00  0.00000000E+00
  0.00000000E+00  0.00000000E+00  0.00000000E+00
  0.00000000E+00  0.00000000E+00  0.00000000E+00
  0.00000000E+00  0.00000000E+00  0.00000000E+00
  0.00000000E+00  0.00000000E+00  0.00000000E+00
  0.00000000E+00  0.00000000E+00  0.00000000E+00
  0.00000000E+00  0.00000000E+00  0.00000000E+00
  0.00000000E+00  0.00000000E+00  0.00000000E+00
  0.00000000E+00  0.00000000E+00  0.00000000E+00
  0.00000000E+00  0.00000000E+00  0.00000000E+00
  0.00000000E+00  0.00000000E+00  0.00000000E+00
  0.00000000E+00  0.00000000E+00  0.00000000E+00
  0.00000000E+00  0.00000000E+00  0.00000000E+00
  0.00000000E+00  0.00000000E+00  0.00000000E+00
  0.00000000E+00  0.00000000E+00  0.00000000E+00
  0.00000000E+00  0.00000000E+00  0.00000000E+00
  0.00000000E+00  0.00000000E+00  0.00000000E+00
  0.00000000E+00  0.00000000E+00  0.00000000E+00
  0.00000000E+00  0.00000000E+00  0.00000000E+00
  0.00000000E+00  0.00000000E+00  0.00000000E+00
  0.00000000E+00  0.00000000E+00  0.00000000E+00
