0.0%_Bond__vac_1_Cd[0. 0. 0.]_-dNELECT=0
   1.0000000000000000     
    13.0867679999999993    0.0000000000000000    0.0000000000000000
     0.0000000000000000   13.0867679999999993    0.0000000000000000
     0.0000000000000000    0.0000000000000000   13.0867679999999993
   Cd   Te
    31    32
Direct
  0.0037685274860670  0.0045301179947043  0.4960239356705506
  0.0039733892918759  0.5045905269387982 -0.0038752363114279
  0.0034845542308091  0.5042516055228502  0.4955827147324774
  0.5037225671930680  0.0044527058850034  0.9958498486402800
  0.5039968344827482  0.0039209939868964  0.4957129623570659
  0.5038657084549859  0.5037695387535942  0.9958090752480065
  0.5037330839670084  0.5043222576657090  0.4959550912342656
  0.9964112922788581  0.2499862351817855  0.2415604984561619
  0.0112233590046034  0.2505803418092222  0.7500308865557868
  0.0118175251444602  0.7586656150750973  0.2417963051333891
  0.9965901020240993  0.7581720468618011  0.7499052946737282
  0.5030799963031878  0.2521318567260246  0.2441125260026220
  0.5048250973727673  0.2517013427235003  0.7476927278240645
  0.5047682616834250  0.7558473492049754  0.2440153977173628
  0.5030135390835918  0.7560213198167881  0.7478365106828282
  0.2471188880150260  0.9999399625668390  0.2415639044806620
  0.2472770361271293  0.0080862894597247  0.7504780256095105
  0.2542631325172577  0.5040734368515060  0.2451872393566371
  0.2542025124364015  0.5042156193898569  0.7468871422292853
  0.7608547109420732  0.0081111531371350  0.2412386877199794
  0.7607493370299770  0.0000317384368068  0.7501110639646213
  0.7538811330480386  0.5044124611040284  0.2446946757527190
  0.7534951440674539  0.5042065441633008  0.7469878730108497
  0.2470736705797512  0.2503070852529692  0.9925949661953848
  0.2538566398074020  0.2529205882034914  0.4954901711484826
  0.2472205617313160  0.7582231547877362  0.0000286755253698
  0.2539070420992406  0.7555134026283732  0.4964774910430086
  0.7608141386572446  0.2502583175384523  0.9996035191735667
  0.7533138829898628  0.2530954216651713  0.4965336379031751
  0.7605559715655129  0.7586117628738964 -0.0077687830718028
  0.7537700012989370  0.7554343293604462  0.4952265307985109
  0.1283404359066533  0.1297807783319375  0.3697100835439997
  0.1195285876720174  0.1210499105004491  0.8795745095700088
  0.1300152565323721  0.6293423218904968  0.3710903846014150
  0.1285747251727045  0.6300197048278582  0.8700268382879749
  0.6295987615648910  0.1281005631371392  0.3693225918111291
  0.6315759830134546  0.1281055372298580  0.8718894471420814
  0.6282720648386586  0.6296371426392373  0.3702013979250724
  0.6292804646247702  0.6308257241566750  0.8720523126166847
  0.1282763852352480  0.3786861484867247  0.1219298970792773
  0.1299751759852089  0.3795207126905049  0.6203707269726275
  0.1193875652634569  0.8881736398517175  0.1117300197188860
  0.1282199473193293  0.8789149400846020  0.6220613628340799
  0.6293985124628350  0.3775908754925872  0.1199665494891463
  0.6278211332851944  0.3787789433993852  0.6216505035126370
  0.6310505287728493  0.8803027409818510  0.1199206138556698
  0.6294318454023252  0.8800617399492719  0.6223179045790539
  0.3763525100773018  0.1282547248486630  0.1201031718668899
  0.3782952840416582  0.1280513155794186  0.6222246404920362
  0.3785832407717253  0.6304432159174775  0.1198756920679649
  0.3795723747147060  0.6298615022127645  0.6214082950020301
  0.8885411442499379  0.1205979325492295  0.1116016006473603
  0.8793136113588567  0.1301242963019673  0.6219963928248760
  0.8795483124329421  0.6304561144351057  0.1217224144798847
  0.8775742651853566  0.6292629117988633  0.6206576674573555
  0.3797149144556095  0.3785584241437517  0.3704478872573227
  0.3784739137890503  0.3772243121844098  0.8716591854138062
  0.3784317354161579  0.8799587623914473  0.3693948855981740
  0.3764376839309549  0.8801134371242728  0.8720363996900286
  0.8774587566560486  0.3789470768160299  0.3709556647218705
  0.8795628930962600  0.3788414991430454  0.8701859662987635
  0.8796641599903169  0.8787912879139107  0.3697873674108594
  0.8884451858669820  0.8876806414228638  0.8794842657739314

  0.00000000E+00  0.00000000E+00  0.00000000E+00
  0.00000000E+00  0.00000000E+00  0.00000000E+00
  0.00000000E+00  0.00000000E+00  0.00000000E+00
  0.00000000E+00  0.00000000E+00  0.00000000E+00
  0.00000000E+00  0.00000000E+00  0.00000000E+00
  0.00000000E+00  0.00000000E+00  0.00000000E+00
  0.00000000E+00  0.00000000E+00  0.00000000E+00
  0.00000000E+00  0.00000000E+00  0.00000000E+00
  0.00000000E+00  0.00000000E+00  0.00000000E+00
  0.00000000E+00  0.00000000E+00  0.00000000E+00
  0.00000000E+00  0.00000000E+00  0.00000000E+00
  0.00000000E+00  0.00000000E+00  0.00000000E+00
  0.00000000E+00  0.00000000E+00  0.00000000E+00
  0.00000000E+00  0.00000000E+00  0.00000000E+00
  0.00000000E+00  0.00000000E+00  0.00000000E+00
  0.00000000E+00  0.00000000E+00  0.00000000E+00
  0.00000000E+00  0.00000000E+00  0.00000000E+00
  0.00000000E+00  0.00000000E+00  0.00000000E+00
  0.00000000E+00  0.00000000E+00  0.00000000E+00
  0.00000000E+00  0.00000000E+00  0.00000000E+00
  0.00000000E+00  0.00000000E+00  0.00000000E+00
  0.00000000E+00  0.00000000E+00  0.00000000E+00
  0.00000000E+00  0.00000000E+00  0.00000000E+00
  0.00000000E+00  0.00000000E+00  0.00000000E+00
  0.00000000E+00  0.00000000E+00  0.00000000E+00
  0.00000000E+00  0.00000000E+00  0.00000000E+00
  0.00000000E+00  0.00000000E+00  0.00000000E+00
  0.00000000E+00  0.00000000E+00  0.00000000E+00
  0.00000000E+00  0.00000000E+00  0.00000000E+00
  0.00000000E+00  0.00000000E+00  0.00000000E+00
  0.00000000E+00  0.00000000E+00  0.00000000E+00
  0.00000000E+00  0.00000000E+00  0.00000000E+00
  0.00000000E+00  0.00000000E+00  0.00000000E+00
  0.00000000E+00  0.00000000E+00  0.00000000E+00
  0.00000000E+00  0.00000000E+00  0.00000000E+00
  0.00000000E+00  0.00000000E+00  0.00000000E+00
  0.00000000E+00  0.00000000E+00  0.00000000E+00
  0.00000000E+00  0.00000000E+00  0.00000000E+00
  0.00000000E+00  0.00000000E+00  0.00000000E+00
  0.00000000E+00  0.00000000E+00  0.00000000E+00
  0.00000000E+00  0.00000000E+00  0.00000000E+00
  0.00000000E+00  0.00000000E+00  0.00000000E+00
  0.00000000E+00  0.00000000E+00  0.00000000E+00
  0.00000000E+00  0.00000000E+00  0.00000000E+00
  0.00000000E+00  0.00000000E+00  0.00000000E+00
  0.00000000E+00  0.00000000E+00  0.00000000E+00
  0.00000000E+00  0.00000000E+00  0.00000000E+00
  0.00000000E+00  0.00000000E+00  0.00000000E+00
  0.00000000E+00  0.00000000E+00  0.00000000E+00
  0.00000000E+00  0.00000000E+00  0.00000000E+00
  0.00000000E+00  0.00000000E+00  0.00000000E+00
  0.00000000E+00  0.00000000E+00  0.00000000E+00
  0.00000000E+00  0.00000000E+00  0.00000000E+00
  0.00000000E+00  0.00000000E+00  0.00000000E+00
  0.00000000E+00  0.00000000E+00  0.00000000E+00
  0.00000000E+00  0.00000000E+00  0.00000000E+00
  0.00000000E+00  0.00000000E+00  0.00000000E+00
  0.00000000E+00  0.00000000E+00  0.00000000E+00
  0.00000000E+00  0.00000000E+00  0.00000000E+00
  0.00000000E+00  0.00000000E+00  0.00000000E+00
  0.00000000E+00  0.00000000E+00  0.00000000E+00
  0.00000000E+00  0.00000000E+00  0.00000000E+00
  0.00000000E+00  0.00000000E+00  0.00000000E+00
