-10.0%_BDM_Distortion_vac_1_Cd[0. 0. 0.]
   1.00000000000000     
    13.0867679999999993    0.0000000000000000    0.0000000000000000
     0.0000000000000000   13.0867679999999993    0.0000000000000000
     0.0000000000000000    0.0000000000000000   13.0867679999999993
   Cd   Te
    31    32
Direct
  0.0019926112866488  0.9977794705076825  0.4983921903801105
  0.0014501834234574  0.4976132455312671  0.9985644474478558
  0.0020785710027199  0.4982570456356192  0.4993470556748882
  0.5017016329439796  0.9977782129991799 -0.0018717343920998
  0.5014965049901465  0.9971217170864850  0.4993929822368221
  0.5013154915937437  0.4976671981115761 -0.0013857666808688
  0.5013679283151026  0.4980090584966982  0.4986597445934497
  0.9926078609599255  0.2437107146524274  0.2446185311939267
  0.0065818462437366  0.2433745361154454  0.7536384303990658
  0.0082976243382220  0.7541657502592261  0.2438201152786727
  0.9949472074567512  0.7532501540112827  0.7545887262813220
  0.5001879442660451  0.2465451995942561  0.2478969079218276
  0.5017510645900803  0.2465145610561415  0.7504419985520370
  0.5019981622397534  0.7492568262983985  0.2474484481587444
  0.5005843615475419  0.7497920831969952  0.7503203544300198
  0.2449920070673121  0.9910074487157585  0.2442232117240891
  0.2453009300061215  0.0036407730352751  0.7535387245806764
  0.2500084672823197  0.4982760139261218  0.2470887900316056
  0.2500059013606905  0.4973531307718059  0.7513190119160229
  0.7572273255597910  0.0058339700372241  0.2438142717532695
  0.7574388473320173  0.9935330582247639  0.7550886094735580
  0.7521942615483421  0.4987670697722553  0.2479811148330062
  0.7526595776877667  0.4982724891544391  0.7502080068186947
  0.2448237868898783  0.2418698258823677 -0.0047294788398416
  0.2505385917710771  0.2469285290735229  0.4976541704764775
  0.2450129533339888  0.7535678678030276  0.0054254585886583
  0.2511040759715064  0.7477115378557420  0.5002175840370583
  0.7570256779744747  0.2437459576982652  0.0061729554697651
  0.7514315806089109  0.2470047584287633  0.5003264886145961
  0.7565285185861944  0.7529147495732578 -0.0046452982347260
  0.7527453113876682  0.7497832103705605  0.4982489950844136
  0.1255372026816875  0.1233838442811448  0.3715467508249944
  0.1165226746353636  0.1145438120419743  0.8815915157759008
  0.1261707558054192  0.6237005683791430  0.3735459559644280
  0.1259394748827659  0.6243484026969103  0.8741684571471714
  0.6260348756591305  0.1227973800294829  0.3739120613241541
  0.6284051070213597  0.1235108732575268  0.8747996087038561
  0.6263090447908715  0.6237906230680879  0.3737902566971563
  0.6267171177143257  0.6242411268086150  0.8743141634637309
  0.1252082990821923  0.3712892893878870  0.1242033079734372
  0.1263950706601482  0.3723187943420075  0.6240899637373765
  0.1161641332732441  0.8826949617784811  0.1137293663908060
  0.1260485015481882  0.8723777052360119  0.6249807567528634
  0.6260565366523410  0.3727811934185720  0.1239480838287259
  0.6258240159208603  0.3736377581406210  0.6247169900797304
  0.6281858121503237  0.8742042117336480  0.1238876131530676
  0.6276136519779379  0.8737974955859166  0.6252193965692070
  0.3746082473193237  0.1213433955236158  0.1238372978975892
  0.3758924513690856  0.1226473364523731  0.6240979959608426
  0.3760568863058870  0.6239293353954176  0.1227710631716451
  0.3762650327070796  0.6222428352963335  0.6250826553914505
  0.8860131937249763  0.1145239032767915  0.1139787886001798
  0.8762873103397122  0.1224913220005906  0.6248233344734725
  0.8771696376412917  0.6242020125800359  0.1239991345046867
  0.8765067408242133  0.6239610847927869  0.6241937822227546
  0.3760285613566964  0.3735930670966563  0.3728947193042232
  0.3751953997841704  0.3710330011645914  0.8751512462359093
  0.3759646072014708  0.8726583801324344  0.3738588452290724
  0.3741628107875012  0.8736359879117672  0.8741222164617816
  0.8754724020948346  0.3737132632024276  0.3748373227946817
  0.8760700796997402  0.3719508311351409  0.8739077992418445
  0.8762273914897225  0.8739220938167038  0.3718789363216895
  0.8851011633321935  0.8814949461604796  0.8834995659984533
 
  0.00000000E+00  0.00000000E+00  0.00000000E+00
  0.00000000E+00  0.00000000E+00  0.00000000E+00
  0.00000000E+00  0.00000000E+00  0.00000000E+00
  0.00000000E+00  0.00000000E+00  0.00000000E+00
  0.00000000E+00  0.00000000E+00  0.00000000E+00
  0.00000000E+00  0.00000000E+00  0.00000000E+00
  0.00000000E+00  0.00000000E+00  0.00000000E+00
  0.00000000E+00  0.00000000E+00  0.00000000E+00
  0.00000000E+00  0.00000000E+00  0.00000000E+00
  0.00000000E+00  0.00000000E+00  0.00000000E+00
  0.00000000E+00  0.00000000E+00  0.00000000E+00
  0.00000000E+00  0.00000000E+00  0.00000000E+00
  0.00000000E+00  0.00000000E+00  0.00000000E+00
  0.00000000E+00  0.00000000E+00  0.00000000E+00
  0.00000000E+00  0.00000000E+00  0.00000000E+00
  0.00000000E+00  0.00000000E+00  0.00000000E+00
  0.00000000E+00  0.00000000E+00  0.00000000E+00
  0.00000000E+00  0.00000000E+00  0.00000000E+00
  0.00000000E+00  0.00000000E+00  0.00000000E+00
  0.00000000E+00  0.00000000E+00  0.00000000E+00
  0.00000000E+00  0.00000000E+00  0.00000000E+00
  0.00000000E+00  0.00000000E+00  0.00000000E+00
  0.00000000E+00  0.00000000E+00  0.00000000E+00
  0.00000000E+00  0.00000000E+00  0.00000000E+00
  0.00000000E+00  0.00000000E+00  0.00000000E+00
  0.00000000E+00  0.00000000E+00  0.00000000E+00
  0.00000000E+00  0.00000000E+00  0.00000000E+00
  0.00000000E+00  0.00000000E+00  0.00000000E+00
  0.00000000E+00  0.00000000E+00  0.00000000E+00
  0.00000000E+00  0.00000000E+00  0.00000000E+00
  0.00000000E+00  0.00000000E+00  0.00000000E+00
  0.00000000E+00  0.00000000E+00  0.00000000E+00
  0.00000000E+00  0.00000000E+00  0.00000000E+00
  0.00000000E+00  0.00000000E+00  0.00000000E+00
  0.00000000E+00  0.00000000E+00  0.00000000E+00
  0.00000000E+00  0.00000000E+00  0.00000000E+00
  0.00000000E+00  0.00000000E+00  0.00000000E+00
  0.00000000E+00  0.00000000E+00  0.00000000E+00
  0.00000000E+00  0.00000000E+00  0.00000000E+00
  0.00000000E+00  0.00000000E+00  0.00000000E+00
  0.00000000E+00  0.00000000E+00  0.00000000E+00
  0.00000000E+00  0.00000000E+00  0.00000000E+00
  0.00000000E+00  0.00000000E+00  0.00000000E+00
  0.00000000E+00  0.00000000E+00  0.00000000E+00
  0.00000000E+00  0.00000000E+00  0.00000000E+00
  0.00000000E+00  0.00000000E+00  0.00000000E+00
  0.00000000E+00  0.00000000E+00  0.00000000E+00
  0.00000000E+00  0.00000000E+00  0.00000000E+00
  0.00000000E+00  0.00000000E+00  0.00000000E+00
  0.00000000E+00  0.00000000E+00  0.00000000E+00
  0.00000000E+00  0.00000000E+00  0.00000000E+00
  0.00000000E+00  0.00000000E+00  0.00000000E+00
  0.00000000E+00  0.00000000E+00  0.00000000E+00
  0.00000000E+00  0.00000000E+00  0.00000000E+00
  0.00000000E+00  0.00000000E+00  0.00000000E+00
  0.00000000E+00  0.00000000E+00  0.00000000E+00
  0.00000000E+00  0.00000000E+00  0.00000000E+00
  0.00000000E+00  0.00000000E+00  0.00000000E+00
  0.00000000E+00  0.00000000E+00  0.00000000E+00
  0.00000000E+00  0.00000000E+00  0.00000000E+00
  0.00000000E+00  0.00000000E+00  0.00000000E+00
  0.00000000E+00  0.00000000E+00  0.00000000E+00
  0.00000000E+00  0.00000000E+00  0.00000000E+00
