60.0%_BDM_Distortion_vac_1_Cd[0. 0. 0.]_
   1.00000000000000     
    13.0867679999999993    0.0000000000000000    0.0000000000000000
     0.0000000000000000   13.0867679999999993    0.0000000000000000
     0.0000000000000000    0.0000000000000000   13.0867679999999993
   Cd   Te
    31    32
Direct
  0.0028874089455756  0.9967705859534358  0.5006874486872241
  0.0024682269561149  0.4965333114089585  0.0001504505946708
  0.0019958535976827  0.4967011265017431  0.4999719990336685
  0.5023464586518506  0.9957148951655385  0.0003399736577209
  0.5017098847220678  0.9959864034904109  0.5006212071100786
  0.5034955379242824  0.4966916806970506 -0.0003315268596805
  0.5025686673478948  0.4966449032859607  0.4997040906834224
  0.9956050841367076  0.2426822783344992  0.2448792952158730
  0.0084538297675817  0.2410873519632096  0.7564169308036970
  0.0064113097019534  0.7520407674557792  0.2451526315128071
  0.9971273347915390  0.7524383082301814  0.7567698057377233
  0.5016085242048018  0.2456153598343357  0.2495532452132255
  0.5027084874088277  0.2452090673077160  0.7518753493082947
  0.5040978720390757  0.7489998323181103  0.2495737380852712
  0.5021035962585907  0.7470516880944116  0.7510209052853619
  0.2471820063319266 -0.0074077628214300  0.2455873765025222
  0.2471254100099302  0.0028641553934397  0.7562078345681170
  0.2516408770896538  0.4967712180156871  0.2483706192789079
  0.2509291783160910  0.4965570612051834  0.7514505076045568
  0.7577659770559048  0.0048865670370121  0.2443955519934570
  0.7578723135143870  0.9911793054383344  0.7569325362180760
  0.7528519028868372  0.4973816306672781  0.2492393469615932
  0.7541533415991937  0.4963512847530934  0.7502368031763375
  0.2474115306688157  0.2415208404980033 -0.0058943693806437
  0.2511143128114289  0.2456474556744906  0.4998468700333201
  0.2487180504646712  0.7510345942761150  0.0064372468791887
  0.2506529421228918  0.7468295964295558  0.5013540847032103
  0.7582560692801505  0.2413129300109440  0.0075915144376882
  0.7530712631399548  0.2451285096407899  0.5014688839821458
  0.7581900846074681  0.7524242033436677 -0.0065408649959492
  0.7542701160753963  0.7489838220886889  0.5001389774126326
  0.1263056917590920  0.1220050238291451  0.3738203735994891
  0.1190394226124260  0.1122899363205605  0.8853343851652605
  0.1266385606512753  0.6221455061622810  0.3742041203329929
  0.1279471840487518  0.6231187446671878  0.8759226787564974
  0.6270584229608027  0.1210672535560911  0.3754868623539048
  0.6290486646183865  0.1212895711924018  0.8763707493457559
  0.6281785652334552  0.6228075358539293  0.3759204412690307
  0.6289908446981427  0.6222279445935180  0.8750283950682141
  0.1274584537678897  0.3700964939838965  0.1250668594681288
  0.1266976070055963  0.3709648833678459  0.6255861480750209
  0.1204204866879066  0.8788712604663302  0.1174272836291383
  0.1273260502061317  0.8720538258970386  0.6269467873520802
  0.6276514917708481  0.3708653581756011  0.1252131428310689
  0.6270506457206948  0.3713013791514667  0.6256703388200412
  0.6301197090310094  0.8724440489554185  0.1250439718331866
  0.6281842819665425  0.8721902287041233  0.6264120565229843
  0.3760431780629103  0.1212248902055864  0.1250853249260382
  0.3766462769860305  0.1212931199834552  0.6257826081910702
  0.3789493432938251  0.6223407608573119  0.1253327773575677
  0.3770231001868260  0.6208907621916555  0.6253485551075566
  0.8880528011860553  0.1128780753900022  0.1160960289174118
  0.8780413913915208  0.1210389105583117  0.6274627103593918
  0.8772712980504593  0.6231801619009175  0.1249988335880705
  0.8787031895211851  0.6231623443654560  0.6256598196236558
  0.3766878497813611  0.3715455775340836  0.3750576041476719
  0.3770643287014104  0.3713113878418606  0.8757320596912056
  0.3759891936565725  0.8713251091518583  0.3750334163729801
  0.3760686014182838  0.8712578365705181  0.8750008918085197
  0.8767224301396879  0.3712639534032184  0.3754189350720075
  0.8775847590753582  0.3698317194935184  0.8750757703327298
  0.8776545740336743  0.8733858900359708  0.3735846423068158
  0.8876391493466116  0.8810045339472560  0.8853509643299716
 
  0.00000000E+00  0.00000000E+00  0.00000000E+00
  0.00000000E+00  0.00000000E+00  0.00000000E+00
  0.00000000E+00  0.00000000E+00  0.00000000E+00
  0.00000000E+00  0.00000000E+00  0.00000000E+00
  0.00000000E+00  0.00000000E+00  0.00000000E+00
  0.00000000E+00  0.00000000E+00  0.00000000E+00
  0.00000000E+00  0.00000000E+00  0.00000000E+00
  0.00000000E+00  0.00000000E+00  0.00000000E+00
  0.00000000E+00  0.00000000E+00  0.00000000E+00
  0.00000000E+00  0.00000000E+00  0.00000000E+00
  0.00000000E+00  0.00000000E+00  0.00000000E+00
  0.00000000E+00  0.00000000E+00  0.00000000E+00
  0.00000000E+00  0.00000000E+00  0.00000000E+00
  0.00000000E+00  0.00000000E+00  0.00000000E+00
  0.00000000E+00  0.00000000E+00  0.00000000E+00
  0.00000000E+00  0.00000000E+00  0.00000000E+00
  0.00000000E+00  0.00000000E+00  0.00000000E+00
  0.00000000E+00  0.00000000E+00  0.00000000E+00
  0.00000000E+00  0.00000000E+00  0.00000000E+00
  0.00000000E+00  0.00000000E+00  0.00000000E+00
  0.00000000E+00  0.00000000E+00  0.00000000E+00
  0.00000000E+00  0.00000000E+00  0.00000000E+00
  0.00000000E+00  0.00000000E+00  0.00000000E+00
  0.00000000E+00  0.00000000E+00  0.00000000E+00
  0.00000000E+00  0.00000000E+00  0.00000000E+00
  0.00000000E+00  0.00000000E+00  0.00000000E+00
  0.00000000E+00  0.00000000E+00  0.00000000E+00
  0.00000000E+00  0.00000000E+00  0.00000000E+00
  0.00000000E+00  0.00000000E+00  0.00000000E+00
  0.00000000E+00  0.00000000E+00  0.00000000E+00
  0.00000000E+00  0.00000000E+00  0.00000000E+00
  0.00000000E+00  0.00000000E+00  0.00000000E+00
  0.00000000E+00  0.00000000E+00  0.00000000E+00
  0.00000000E+00  0.00000000E+00  0.00000000E+00
  0.00000000E+00  0.00000000E+00  0.00000000E+00
  0.00000000E+00  0.00000000E+00  0.00000000E+00
  0.00000000E+00  0.00000000E+00  0.00000000E+00
  0.00000000E+00  0.00000000E+00  0.00000000E+00
  0.00000000E+00  0.00000000E+00  0.00000000E+00
  0.00000000E+00  0.00000000E+00  0.00000000E+00
  0.00000000E+00  0.00000000E+00  0.00000000E+00
  0.00000000E+00  0.00000000E+00  0.00000000E+00
  0.00000000E+00  0.00000000E+00  0.00000000E+00
  0.00000000E+00  0.00000000E+00  0.00000000E+00
  0.00000000E+00  0.00000000E+00  0.00000000E+00
  0.00000000E+00  0.00000000E+00  0.00000000E+00
  0.00000000E+00  0.00000000E+00  0.00000000E+00
  0.00000000E+00  0.00000000E+00  0.00000000E+00
  0.00000000E+00  0.00000000E+00  0.00000000E+00
  0.00000000E+00  0.00000000E+00  0.00000000E+00
  0.00000000E+00  0.00000000E+00  0.00000000E+00
  0.00000000E+00  0.00000000E+00  0.00000000E+00
  0.00000000E+00  0.00000000E+00  0.00000000E+00
  0.00000000E+00  0.00000000E+00  0.00000000E+00
  0.00000000E+00  0.00000000E+00  0.00000000E+00
  0.00000000E+00  0.00000000E+00  0.00000000E+00
  0.00000000E+00  0.00000000E+00  0.00000000E+00
  0.00000000E+00  0.00000000E+00  0.00000000E+00
  0.00000000E+00  0.00000000E+00  0.00000000E+00
  0.00000000E+00  0.00000000E+00  0.00000000E+00
  0.00000000E+00  0.00000000E+00  0.00000000E+00
  0.00000000E+00  0.00000000E+00  0.00000000E+00
  0.00000000E+00  0.00000000E+00  0.00000000E+00
