10.0%_BDM_Distortion_vac_1_Cd[0. 0. 0.]_
   1.00000000000000     
    13.0867679999999993    0.0000000000000000    0.0000000000000000
     0.0000000000000000   13.0867679999999993    0.0000000000000000
     0.0000000000000000    0.0000000000000000   13.0867679999999993
   Cd   Te
    31    32
Direct
  0.0023406691053778  0.9977401250791681  0.4988489196627146
  0.0018599047701617  0.4973719489773159  0.9991743721337890
  0.0013994448015384  0.4975441432263859  0.5005961118948824
  0.5022693211047264  0.9977413339708159  0.9988254865561590
  0.5012481941630956  0.9969331172441661  0.4993250574887678
  0.5013582927549946  0.4973359318815850  0.9991344489811603
  0.5020967140067469  0.4977514855564862  0.4993004499562723
  0.9929676739185374  0.2440549449663198  0.2454480467940434
  0.0100425782967276  0.2440858239698943  0.7545169460113551
  0.0066222340976647  0.7516454022187022  0.2449684571009991
  0.9943204234630409  0.7529602750397858  0.7545497447139429
  0.4994795972978962  0.2458261351217341  0.2482427564757696
  0.5015179742108292  0.2460286591500583  0.7507223452211829
  0.5020449414536435  0.7497928378843394  0.2473462097279113
  0.5018643493633316  0.7514627647956112  0.7515198910225017
  0.2447704025756924  0.9936547837307707  0.2453545957899625
  0.2438479761428067  0.0032408599674375  0.7536352290456942
  0.2508677731569940  0.4977809501444516  0.2476340051997597
  0.2529942934318978  0.4992046323371210  0.7507454007764660
  0.7575522173420253  0.0041900660279570  0.2453805520473026
  0.7591263132921812  0.9957472587637729  0.7543619152747615
  0.7510330020724459  0.4973017022690776  0.2496499063933370
  0.7519811727504900  0.4978680848615121  0.7509090457431408
  0.2443436690990379  0.2424388817805654  0.9952411293395443
  0.2516393496831011  0.2472258786745361  0.4988982389352548
  0.2451368717862960  0.7527295399048138  0.0028115643743839
  0.2507443866874601  0.7471876808182908  0.5002681258444858
  0.7575077037815339  0.2444994530244353  0.0047552183736178
  0.7509892328449720  0.2463188085423573  0.5009256283637635
  0.7572927142760694  0.7521045058434338  0.9967447198801062
  0.7522822872039324  0.7495998718954834  0.4985626476788020
  0.1260335815298167  0.1239198559391549  0.3728260868520535
  0.1156983748181432  0.1124383275581585  0.8843273304128194
  0.1262694465773281  0.6224033831966969  0.3741080453056035
  0.1260589651423026  0.6238448934156238  0.8738573835344986
  0.6260998587127762  0.1221807426789397  0.3738695350494096
  0.6291391841912037  0.1229579811318753  0.8753623033600171
  0.6257691205729669  0.6238705486262147  0.3742646911377949
  0.6267859919752915  0.6243771492489621  0.8756143430007747
  0.1257464726919311  0.3710910369092835  0.1249646875892381
  0.1284426127835457  0.3734515541221753  0.6250817118629002
  0.1164856048619551  0.8806036556954803  0.1159237209712481
  0.1258669806899725  0.8718721492454453  0.6253135649359501
  0.6258739211683926  0.3713341037879917  0.1247133741746981
  0.6258776960506619  0.3724790700357075  0.6256008734670675
  0.6286678893687901  0.8743822903282634  0.1245667625849755
  0.6285988149926747  0.8746943210669925  0.6260956942808423
  0.3742326206383447  0.1210713182740078  0.1235493490768424
  0.3757363781936229  0.1214966284532596  0.6252040715245891
  0.3757689380947484  0.6242757321096732  0.1232207392319704
  0.3785945608947261  0.6239068038637190  0.6252805505471783
  0.8857098336899208  0.1142399371586373  0.1156147615922389
  0.8784794679840723  0.1235629349462401  0.6254808065697950
  0.8760449571834169  0.6222622621205074  0.1251007126185669
  0.8755364276403357  0.6237288717640643  0.6249763306731445
  0.3766380815870052  0.3730597546495584  0.3737724551923676
  0.3754814908252717  0.3708038362774451  0.8754401176221799
  0.3751018331882716  0.8724472782553160  0.3736489016981866
  0.3739446911078463  0.8745263081169541  0.8748716925867219
  0.8751258134051039  0.3723603517674439  0.3758668397568994
  0.8767458958033346  0.3714846710601263  0.8742026797277412
  0.8765255467948887  0.8733267113987042  0.3729626682464598
  0.8854282679060504  0.8814846491290217  0.8846040480133665
 
  0.00000000E+00  0.00000000E+00  0.00000000E+00
  0.00000000E+00  0.00000000E+00  0.00000000E+00
  0.00000000E+00  0.00000000E+00  0.00000000E+00
  0.00000000E+00  0.00000000E+00  0.00000000E+00
  0.00000000E+00  0.00000000E+00  0.00000000E+00
  0.00000000E+00  0.00000000E+00  0.00000000E+00
  0.00000000E+00  0.00000000E+00  0.00000000E+00
  0.00000000E+00  0.00000000E+00  0.00000000E+00
  0.00000000E+00  0.00000000E+00  0.00000000E+00
  0.00000000E+00  0.00000000E+00  0.00000000E+00
  0.00000000E+00  0.00000000E+00  0.00000000E+00
  0.00000000E+00  0.00000000E+00  0.00000000E+00
  0.00000000E+00  0.00000000E+00  0.00000000E+00
  0.00000000E+00  0.00000000E+00  0.00000000E+00
  0.00000000E+00  0.00000000E+00  0.00000000E+00
  0.00000000E+00  0.00000000E+00  0.00000000E+00
  0.00000000E+00  0.00000000E+00  0.00000000E+00
  0.00000000E+00  0.00000000E+00  0.00000000E+00
  0.00000000E+00  0.00000000E+00  0.00000000E+00
  0.00000000E+00  0.00000000E+00  0.00000000E+00
  0.00000000E+00  0.00000000E+00  0.00000000E+00
  0.00000000E+00  0.00000000E+00  0.00000000E+00
  0.00000000E+00  0.00000000E+00  0.00000000E+00
  0.00000000E+00  0.00000000E+00  0.00000000E+00
  0.00000000E+00  0.00000000E+00  0.00000000E+00
  0.00000000E+00  0.00000000E+00  0.00000000E+00
  0.00000000E+00  0.00000000E+00  0.00000000E+00
  0.00000000E+00  0.00000000E+00  0.00000000E+00
  0.00000000E+00  0.00000000E+00  0.00000000E+00
  0.00000000E+00  0.00000000E+00  0.00000000E+00
  0.00000000E+00  0.00000000E+00  0.00000000E+00
  0.00000000E+00  0.00000000E+00  0.00000000E+00
  0.00000000E+00  0.00000000E+00  0.00000000E+00
  0.00000000E+00  0.00000000E+00  0.00000000E+00
  0.00000000E+00  0.00000000E+00  0.00000000E+00
  0.00000000E+00  0.00000000E+00  0.00000000E+00
  0.00000000E+00  0.00000000E+00  0.00000000E+00
  0.00000000E+00  0.00000000E+00  0.00000000E+00
  0.00000000E+00  0.00000000E+00  0.00000000E+00
  0.00000000E+00  0.00000000E+00  0.00000000E+00
  0.00000000E+00  0.00000000E+00  0.00000000E+00
  0.00000000E+00  0.00000000E+00  0.00000000E+00
  0.00000000E+00  0.00000000E+00  0.00000000E+00
  0.00000000E+00  0.00000000E+00  0.00000000E+00
  0.00000000E+00  0.00000000E+00  0.00000000E+00
  0.00000000E+00  0.00000000E+00  0.00000000E+00
  0.00000000E+00  0.00000000E+00  0.00000000E+00
  0.00000000E+00  0.00000000E+00  0.00000000E+00
  0.00000000E+00  0.00000000E+00  0.00000000E+00
  0.00000000E+00  0.00000000E+00  0.00000000E+00
  0.00000000E+00  0.00000000E+00  0.00000000E+00
  0.00000000E+00  0.00000000E+00  0.00000000E+00
  0.00000000E+00  0.00000000E+00  0.00000000E+00
  0.00000000E+00  0.00000000E+00  0.00000000E+00
  0.00000000E+00  0.00000000E+00  0.00000000E+00
  0.00000000E+00  0.00000000E+00  0.00000000E+00
  0.00000000E+00  0.00000000E+00  0.00000000E+00
  0.00000000E+00  0.00000000E+00  0.00000000E+00
  0.00000000E+00  0.00000000E+00  0.00000000E+00
  0.00000000E+00  0.00000000E+00  0.00000000E+00
  0.00000000E+00  0.00000000E+00  0.00000000E+00
  0.00000000E+00  0.00000000E+00  0.00000000E+00
  0.00000000E+00  0.00000000E+00  0.00000000E+00
