# May want to change NCORE, KPAR, AEXX, ENCUT, NUPDOWN, ISPIN, POTIM = 
# ShakeNBreak INCAR with coarse settings to maximise speed with sufficient accuracy for qualitative structure searching = 
# KPAR = # No KPAR, only one kpoint
ALGO = Normal
EDIFFG = -0.01
ENCUT = 300
HFSCREEN = 0.2
IBRION = 2 # While often slower than '1' (RMM-DIIS), this is more stable and reliable, and vasp_gam relaxations are typically cheap enough to justify it
ISIF = 2
ISMEAR = 0
ISPIN = 2 # Spin polarisation likely for defects
ISYM = 0 # Symmetry breaking extremely likely for defects
LASPH = True
LCHARG = False
LHFCALC = True
LORBIT = 11
LREAL = Auto
LWAVE = False
NCORE = 12
NEDOS = 2000
NELM = 100
NSW = 300
PREC = Accurate
PRECFOCK = Fast
SIGMA = 0.05
NELECT = 566.0
NUPDOWN = 0 # But could be 2 if strong spin polarisation or magnetic behaviour present
EDIFF = 1e-05 # May need to reduce for tricky relaxations
ROPT = 1e-3 1e-3
