Rattled__num_neighbours=0__v_Cd_s0
1.0
  13.0867679999999993    0.0000000000000000    0.0000000000000000
   0.0000000000000000   13.0867679999999993    0.0000000000000000
   0.0000000000000000    0.0000000000000000   13.0867679999999993
Cd Te
31 32
direct
   0.0177789553613617    0.0190968091170754    0.5015481078965244 Cd2+
   0.0307703937742712    0.4951563279687774    0.0113589470735317 Cd2+
  -0.0016428667459886    0.4978162124106135    0.4752014722492185 Cd2+
   0.4685036234814108    0.0227243278206622   -0.0207053756030043 Cd2+
   0.4870328381400341   -0.0061063314660753    0.4793360182224590 Cd2+
   0.5063787139075854    0.5211117662000613   -0.0305716046698792 Cd2+
   0.4605236564844819    0.5259473435594881    0.4872453627174123 Cd2+
  -0.0119846351502346    0.2687629420328336    0.2216328067350696 Cd2+
  -0.0085783888556470    0.2016324631492284    0.7545676299001139 Cd2+
  -0.0057699164166290    0.7336144216110215    0.2703485819985549 Cd2+
   0.0006591964131895    0.7863279060989067    0.7313454322859749 Cd2+
   0.5186448533287923    0.2548110843939725    0.2299197727699354 Cd2+
   0.5080273389469677    0.2529991498521995    0.7947406797818616 Cd2+
   0.5056197021753750    0.7705897448729609    0.2604202489828303 Cd2+
   0.4789694940246020    0.7341680917040252    0.7739021412906880 Cd2+
   0.2359883281041528    0.0060847089554642    0.2365871753970814 Cd2+
   0.2747493647035392   -0.0087389872191998    0.7445354780752077 Cd2+
   0.2639342192348341    0.5196692090091732    0.2228238480072853 Cd2+
   0.2410481319513568    0.4581347999389192    0.7614583414243919 Cd2+
   0.7662080296715337    0.0093568844606024    0.2358495548635443 Cd2+
   0.7808608940394591    0.0069970460558733    0.7408067878523406 Cd2+
   0.7061303367037215    0.4877392251999549    0.2446576506334306 Cd2+
   0.7610644210802281    0.5175385910362635    0.7343395483549210 Cd2+
   0.2560417038732591    0.2300668657016973   -0.0306951518732440 Cd2+
   0.2928262816837144    0.2172420394200609    0.4955342073094728 Cd2+
   0.2790241243660126    0.7722976183786214   -0.0107231758592225 Cd2+
   0.2697886218848817    0.7425127109436388    0.5388265067924137 Cd2+
   0.7681116822549298    0.2605108700425963    0.0095684323370555 Cd2+
   0.7444570730611356    0.2526350822904256    0.4929001009498550 Cd2+
   0.7429243408537136    0.7792332400854457    0.0013714473984419 Cd2+
   0.7570674894811333    0.7589026658342564    0.5512950899608947 Cd2+
   0.1112733591782456    0.1174010939040707    0.3436107546474843 Te2-
   0.1324571771172988    0.1222730738237328    0.8693717909381802 Te2-
   0.1288361119871809    0.6084897025336163    0.3423704007200875 Te2-
   0.1228730793998613    0.6456026084380589    0.8810789214112831 Te2-
   0.6117000483804184    0.1469395207319756    0.3947780988413800 Te2-
   0.6124583662320234    0.1172755852605784    0.9053756665007460 Te2-
   0.6274294845851308    0.6156021030644324    0.3498251737870728 Te2-
   0.6276891944627788    0.6441658830810389    0.8965299438949221 Te2-
   0.1127395875743222    0.3710446380441398    0.1110894804729985 Te2-
   0.1163198497871640    0.3886792604423773    0.5606162720503307 Te2-
   0.1059875774715040    0.8851397312491509    0.1113521191313982 Te2-
   0.1807668808734600    0.9155949603040624    0.6037971926306959 Te2-
   0.6252856516154891    0.3624691869897011    0.0891744712360276 Te2-
   0.6602404847459803    0.3556298462693394    0.6095974600361522 Te2-
   0.6404379124811446    0.8787396425414244    0.1174538022796724 Te2-
   0.6183879659841093    0.8637195507019508    0.6554431480508808 Te2-
   0.3810213115066994    0.1449745195574100    0.1415335917659176 Te2-
   0.4090246564029993    0.1279997092923164    0.5907830760910221 Te2-
   0.4005589469018196    0.6180579186394138    0.1689203830167053 Te2-
   0.3686601759751288    0.5982646595294274    0.6161926444014907 Te2-
   0.8924118289545154    0.1250045832908443    0.1186117152810515 Te2-
   0.8853119456971122    0.1267903849475759    0.6195571121262421 Te2-
   0.8895528760592954    0.6478752133265014    0.1363001672895880 Te2-
   0.8800804710053944    0.6367904573503794    0.6164814059423078 Te2-
   0.3939543890417008    0.3515861087040512    0.3788933342630675 Te2-
   0.3826813045356073    0.3822017100008834    0.9069313768818319 Te2-
   0.3799990344528560    0.8973068540273043    0.3757941050842705 Te2-
   0.3844056518189594    0.9134902889344506    0.8610903419258317 Te2-
   0.8422070685273232    0.3921225867098801    0.3686882072777577 Te2-
   0.8778741653750048    0.3438788584792034    0.8806641911275112 Te2-
   0.8727593462587789    0.8865984823021851    0.3914770159042247 Te2-
   0.9038421642096449    0.8799233277099177    0.9046705100193668 Te2-
