-20.0%_BDM_Distortion_vac_1_Cd[0. 0. 0.]
   1.00000000000000     
    13.0867679999999993    0.0000000000000000    0.0000000000000000
     0.0000000000000000   13.0867679999999993    0.0000000000000000
     0.0000000000000000    0.0000000000000000   13.0867679999999993
   Cd   Te
    31    32
Direct
  0.0019789546132584  0.9978609887264285  0.4981770047056254
  0.0019023474161925  0.4979004068644984  0.9981205839842925
  0.0020459556671705  0.4980917407022852  0.4984000746042515
  0.5017128616630114  0.9977114988224987  0.9979180554298210
  0.5016278448835284  0.9970189351031503  0.4990872660271722
  0.5012486054967515  0.4973913966700103  0.9981156052323060
  0.5019272814782715  0.4978477194922075  0.4982361534079712
  0.9930033567438794  0.2433398896503012  0.2440322691805336
  0.0063543692065565  0.2437224733335251  0.7525955605111798
  0.0088608921075647  0.7539184635305078  0.2436881352991265
  0.9953832547701298  0.7521496782946786  0.7534210004644335
  0.5000468531039653  0.2462221901350686  0.2474287692982262
  0.5027265087565407  0.2454567989553179  0.7501824478952773
  0.5017996690721920  0.7494216224541359  0.2466825138822972
  0.5006035828229796  0.7490129459318436  0.7500119951851897
  0.2444489028266639  0.9927666061481278  0.2446014585782625
  0.2451426133224983  0.0015929166462238  0.7519316275710779
  0.2510901570244092  0.4983506931891504  0.2465325385531139
  0.2513466538662901  0.4967960692974902  0.7501464363359058
  0.7574364724839500  0.0041191696776389  0.2442155085508818
  0.7579909222921847  0.9939157137504595  0.7541597117304736
  0.7520754148689198  0.4981917308427605  0.2480119536658080
  0.7523406362782465  0.4977213858668287  0.7491197407214868
  0.2447678675528759  0.2424454186258124  0.9960065918290185
  0.2511582158726501  0.2472411859177390  0.4976442455635744
  0.2443033915905681  0.7534633245225436  0.0033592636733954
  0.2517184257711834  0.7477148952609477  0.4985060346268281
  0.7576839188178168  0.2444592308820083  0.0048666665103090
  0.7513004065877843  0.2467535178699224  0.4992102942694369
  0.7568796547505527  0.7515779583729838  0.9963636721320333
  0.7522805293569154  0.7494403155142774  0.4976461207643732
  0.1257940711529972  0.1237700279151638  0.3718724985518016
  0.1171297386015172  0.1145833949366835  0.8803174694683035
  0.1266391580092409  0.6234714816924852  0.3723965711024689
  0.1266723903021393  0.6237380761060649  0.8729310818147424
  0.6261430581221081  0.1224026513860849  0.3729292959318070
  0.6293071185583896  0.1228163373222168  0.8749576346633171
  0.6260680216481849  0.6239176992180612  0.3727891688888501
  0.6273022347485296  0.6240523851188694  0.8739990567350563
  0.1253487933504713  0.3714386432085743  0.1239947974812417
  0.1266295768445743  0.3723947687094601  0.6236043259437578
  0.1162252405562449  0.8832763971167348  0.1131658817759696
  0.1261700954681289  0.8719661707192096  0.6238329224252385
  0.6261157851020577  0.3722529205383252  0.1235370356583831
  0.6259861903776600  0.3726483990394668  0.6240071552209275
  0.6286111509296206  0.8743605282371374  0.1232864854979026
  0.6276456835182440  0.8736920011008498  0.6251027822328927
  0.3742624875368514  0.1211336432712799  0.1231854372820663
  0.3759443377993858  0.1224405502814435  0.6240794478343370
  0.3759813523753253  0.6246595568503710  0.1214623484160809
  0.3766212114793608  0.6223139769328341  0.6240130198539103
  0.8860060026060009  0.1139233292297311  0.1134931429468266
  0.8761749382120182  0.1226514376372383  0.6240343468826584
  0.8774345203755665  0.6239321584436791  0.1240402575886257
  0.8761396765345881  0.6237743157817462  0.6233796818200679
  0.3764256654803075  0.3734045872265354  0.3724631175430883
  0.3756936387351110  0.3700696061995003  0.8745061412649068
  0.3759285161459570  0.8734876625225042  0.3722900770487896
  0.3742902438475978  0.8739462912834319  0.8736613104184421
  0.8758010543703165  0.3727768964228949  0.3739892483087478
  0.8763598786086827  0.3722051149848245  0.8734407418158928
  0.8765639731923852  0.8737517697940119  0.3717132514504948
  0.8854486743448973  0.8804373397212062  0.8827889659487479
 
  0.00000000E+00  0.00000000E+00  0.00000000E+00
  0.00000000E+00  0.00000000E+00  0.00000000E+00
  0.00000000E+00  0.00000000E+00  0.00000000E+00
  0.00000000E+00  0.00000000E+00  0.00000000E+00
  0.00000000E+00  0.00000000E+00  0.00000000E+00
  0.00000000E+00  0.00000000E+00  0.00000000E+00
  0.00000000E+00  0.00000000E+00  0.00000000E+00
  0.00000000E+00  0.00000000E+00  0.00000000E+00
  0.00000000E+00  0.00000000E+00  0.00000000E+00
  0.00000000E+00  0.00000000E+00  0.00000000E+00
  0.00000000E+00  0.00000000E+00  0.00000000E+00
  0.00000000E+00  0.00000000E+00  0.00000000E+00
  0.00000000E+00  0.00000000E+00  0.00000000E+00
  0.00000000E+00  0.00000000E+00  0.00000000E+00
  0.00000000E+00  0.00000000E+00  0.00000000E+00
  0.00000000E+00  0.00000000E+00  0.00000000E+00
  0.00000000E+00  0.00000000E+00  0.00000000E+00
  0.00000000E+00  0.00000000E+00  0.00000000E+00
  0.00000000E+00  0.00000000E+00  0.00000000E+00
  0.00000000E+00  0.00000000E+00  0.00000000E+00
  0.00000000E+00  0.00000000E+00  0.00000000E+00
  0.00000000E+00  0.00000000E+00  0.00000000E+00
  0.00000000E+00  0.00000000E+00  0.00000000E+00
  0.00000000E+00  0.00000000E+00  0.00000000E+00
  0.00000000E+00  0.00000000E+00  0.00000000E+00
  0.00000000E+00  0.00000000E+00  0.00000000E+00
  0.00000000E+00  0.00000000E+00  0.00000000E+00
  0.00000000E+00  0.00000000E+00  0.00000000E+00
  0.00000000E+00  0.00000000E+00  0.00000000E+00
  0.00000000E+00  0.00000000E+00  0.00000000E+00
  0.00000000E+00  0.00000000E+00  0.00000000E+00
  0.00000000E+00  0.00000000E+00  0.00000000E+00
  0.00000000E+00  0.00000000E+00  0.00000000E+00
  0.00000000E+00  0.00000000E+00  0.00000000E+00
  0.00000000E+00  0.00000000E+00  0.00000000E+00
  0.00000000E+00  0.00000000E+00  0.00000000E+00
  0.00000000E+00  0.00000000E+00  0.00000000E+00
  0.00000000E+00  0.00000000E+00  0.00000000E+00
  0.00000000E+00  0.00000000E+00  0.00000000E+00
  0.00000000E+00  0.00000000E+00  0.00000000E+00
  0.00000000E+00  0.00000000E+00  0.00000000E+00
  0.00000000E+00  0.00000000E+00  0.00000000E+00
  0.00000000E+00  0.00000000E+00  0.00000000E+00
  0.00000000E+00  0.00000000E+00  0.00000000E+00
  0.00000000E+00  0.00000000E+00  0.00000000E+00
  0.00000000E+00  0.00000000E+00  0.00000000E+00
  0.00000000E+00  0.00000000E+00  0.00000000E+00
  0.00000000E+00  0.00000000E+00  0.00000000E+00
  0.00000000E+00  0.00000000E+00  0.00000000E+00
  0.00000000E+00  0.00000000E+00  0.00000000E+00
  0.00000000E+00  0.00000000E+00  0.00000000E+00
  0.00000000E+00  0.00000000E+00  0.00000000E+00
  0.00000000E+00  0.00000000E+00  0.00000000E+00
  0.00000000E+00  0.00000000E+00  0.00000000E+00
  0.00000000E+00  0.00000000E+00  0.00000000E+00
  0.00000000E+00  0.00000000E+00  0.00000000E+00
  0.00000000E+00  0.00000000E+00  0.00000000E+00
  0.00000000E+00  0.00000000E+00  0.00000000E+00
  0.00000000E+00  0.00000000E+00  0.00000000E+00
  0.00000000E+00  0.00000000E+00  0.00000000E+00
  0.00000000E+00  0.00000000E+00  0.00000000E+00
  0.00000000E+00  0.00000000E+00  0.00000000E+00
  0.00000000E+00  0.00000000E+00  0.00000000E+00
