0.0%__num_neighbours=1__Vac_O_mult32    
   1.0000000000000000     
     0.0000000000000000   10.7468629999999994    0.0000000000000000
   -10.7468629999999994    0.0000000000000000    0.0000000000000000
     0.0000000000000000    0.0000000000000000    9.7925889999999995
   Sr   Cu   O 
    16    32    31
Direct
  0.0014748970929794  0.2320647518659511  0.2473965033574149
  0.5018940644509389  0.2445003306704317  0.2481334746837073
  0.0015082258957191  0.7576784489961259  0.2476921508590701
  0.5019466077278247  0.7451680904238661  0.2482996214126545
  0.2525474739078203 -0.0053528754662851  0.7468165903693467
  0.7514563493683816 -0.0049406044992346  0.7474318367713045
  0.2550144000614360  0.4946239380674307  0.7463646235188203
  0.7494011893288832  0.4951048764729484  0.7475127414657097
  0.0017685119473062  0.4950957155819183  0.5094732096374263
  0.5019420378702268  0.4948413244447358  0.4968542543464000
  0.0019706529659900 -0.0047769777731889  0.5002393197429804
  0.5020628653738309 -0.0050265373479144  0.4980755778934610
  0.2558640191737905  0.2455005833068516 -0.0037116495044822
  0.7481840434749949  0.2462800691045732 -0.0030627277034877
  0.2558885199782319  0.7435346411437607 -0.0034719026200830
  0.7482440708652579  0.7437418761085662 -0.0029258332490372
  0.2438827766262327  0.3729644988882561  0.3637316581783449
  0.7587322205101903  0.3727787253626966  0.3666965701225798
  0.2517095490256315  0.8694309566862941  0.3728031809522444
  0.7519474852199431  0.8699256063267425  0.3734315329703026
  0.5020213291412734  0.1196721561287986  0.8715668360465360
  0.0018550963456180  0.1193349308070394  0.8745330536580872
  0.5020848371274506  0.6201624348576841  0.8710635725530151
  0.0026015794954486  0.6145763623497483  0.8895644021553952
  0.3792946971719157  0.4946396722861004  0.1234297149263534
  0.8983806226634817  0.4948722834299717  0.0941129047468454
  0.3769547570836452  0.9945688123902503  0.1236237022686384
  0.8778337026716192 -0.0051951173088205  0.1161760151818308
  0.6273149790092151  0.2455145608668561  0.6232579469631678
  0.1277913462099997  0.2451196443435832  0.6197921915041072
  0.6278813453129887  0.7447246868188806  0.6231230055225668
  0.1282829127775093  0.7446166677512746  0.6199198643459446
  0.2439185062813308  0.6167811551916789  0.3639590320059744
  0.7587772970618226  0.6183681458373851  0.3673187907130797
  0.2516722911117302  0.1209609872946934  0.3729197110021341
  0.7518393215366689  0.1213576053975772  0.3735687634750129
  0.5020870022879121  0.3692015209691576  0.8710403814963860
  0.0027214050496703  0.3753942513409398  0.8896268428787998
  0.5020902766654423  0.8694829692018571  0.8718253347228725
  0.0018980543358744  0.8711197034835338  0.8750802094833120
  0.1128185356978760  0.4945501519055713  0.1020026598174772
  0.6274414159683025  0.4949697964463468  0.1254949276828998
  0.1268833724078868 -0.0053217942949281  0.1164293167088820
  0.6271210355103655 -0.0051453796447225  0.1243229327561575
  0.3774208338143583  0.2449094879790476  0.6231601123367302
  0.8768803478386152  0.2453637374427576  0.6204012773113392
  0.3780360301404806  0.7444145731785426  0.6236558139599869
  0.8772894820474036  0.7448645382237070  0.6207278617178065
  0.5025026235806702  0.4949610470746974  0.2510660179236481
  0.0021979093434959 -0.0051708824400943  0.2442468072691551
  0.5017132789808433  0.9947905632973143  0.2491895598043017
  0.2507461863223046  0.2450469250972988  0.7469878080821748
  0.7537623680402249  0.2458718201631475  0.7474885344946803
  0.2511263493128548  0.7438337826297623  0.7472217831008524
  0.7540304965047571  0.7444911900550799  0.7476452644220678
  0.0019296141123701  0.2418011339418096  0.0021303167222087
  0.5021241252795717  0.2444549642280114 -0.0022811492567404
  0.0018712470510204  0.7481985107063961  0.0021800149454643
  0.5022788255634415  0.7446981051843409 -0.0019989393963059
  0.2513492367475315 -0.0048803851353615  0.4973456364864862
  0.7524481619996064 -0.0044627395434704  0.4979447981812631
  0.2438824109401117  0.4947911920909082  0.4927894519257366
  0.7590432465834533  0.4953258477330193  0.4948105777015223
  0.0020936468301808  0.2480238465956958  0.4952205388111373
  0.5023042641008234  0.2461050109907709  0.4973836720179667
  0.0025051120962170  0.7423260267703110  0.4955160566303219
  0.5026277653784573  0.7435745762785684  0.4975234476688872
  0.2543787802907252 -0.0054477611332660 -0.0046896361065846
  0.7497014108970436 -0.0049090129322565  0.9960385671873372
  0.2585545577044475  0.4944464848353010 -0.0053446242487277
  0.7476508671213249  0.4950638992944109  0.9961569707505944
  0.0026953521855324  0.4949291556032099  0.7560289710725514
  0.5020019642859631  0.4946794618495906  0.7454770509890830
  0.0019811909550139 -0.0049783172643312  0.7476664809247796
  0.5018259282458828 -0.0055184087065766  0.7465055359450832
  0.2487580659969668  0.2440024519408938  0.2448132470881048
  0.7548342546064604  0.2449232632240244  0.2460533112619334
  0.2488178208643026  0.7458444267632428  0.2451675588221318
  0.7549115644469179  0.7460108377685220  0.2463674576328877

  0.00000000E+00  0.00000000E+00  0.00000000E+00
  0.00000000E+00  0.00000000E+00  0.00000000E+00
  0.00000000E+00  0.00000000E+00  0.00000000E+00
  0.00000000E+00  0.00000000E+00  0.00000000E+00
  0.00000000E+00  0.00000000E+00  0.00000000E+00
  0.00000000E+00  0.00000000E+00  0.00000000E+00
  0.00000000E+00  0.00000000E+00  0.00000000E+00
  0.00000000E+00  0.00000000E+00  0.00000000E+00
  0.00000000E+00  0.00000000E+00  0.00000000E+00
  0.00000000E+00  0.00000000E+00  0.00000000E+00
  0.00000000E+00  0.00000000E+00  0.00000000E+00
  0.00000000E+00  0.00000000E+00  0.00000000E+00
  0.00000000E+00  0.00000000E+00  0.00000000E+00
  0.00000000E+00  0.00000000E+00  0.00000000E+00
  0.00000000E+00  0.00000000E+00  0.00000000E+00
  0.00000000E+00  0.00000000E+00  0.00000000E+00
  0.00000000E+00  0.00000000E+00  0.00000000E+00
  0.00000000E+00  0.00000000E+00  0.00000000E+00
  0.00000000E+00  0.00000000E+00  0.00000000E+00
  0.00000000E+00  0.00000000E+00  0.00000000E+00
  0.00000000E+00  0.00000000E+00  0.00000000E+00
  0.00000000E+00  0.00000000E+00  0.00000000E+00
  0.00000000E+00  0.00000000E+00  0.00000000E+00
  0.00000000E+00  0.00000000E+00  0.00000000E+00
  0.00000000E+00  0.00000000E+00  0.00000000E+00
  0.00000000E+00  0.00000000E+00  0.00000000E+00
  0.00000000E+00  0.00000000E+00  0.00000000E+00
  0.00000000E+00  0.00000000E+00  0.00000000E+00
  0.00000000E+00  0.00000000E+00  0.00000000E+00
  0.00000000E+00  0.00000000E+00  0.00000000E+00
  0.00000000E+00  0.00000000E+00  0.00000000E+00
  0.00000000E+00  0.00000000E+00  0.00000000E+00
  0.00000000E+00  0.00000000E+00  0.00000000E+00
  0.00000000E+00  0.00000000E+00  0.00000000E+00
  0.00000000E+00  0.00000000E+00  0.00000000E+00
  0.00000000E+00  0.00000000E+00  0.00000000E+00
  0.00000000E+00  0.00000000E+00  0.00000000E+00
  0.00000000E+00  0.00000000E+00  0.00000000E+00
  0.00000000E+00  0.00000000E+00  0.00000000E+00
  0.00000000E+00  0.00000000E+00  0.00000000E+00
  0.00000000E+00  0.00000000E+00  0.00000000E+00
  0.00000000E+00  0.00000000E+00  0.00000000E+00
  0.00000000E+00  0.00000000E+00  0.00000000E+00
  0.00000000E+00  0.00000000E+00  0.00000000E+00
  0.00000000E+00  0.00000000E+00  0.00000000E+00
  0.00000000E+00  0.00000000E+00  0.00000000E+00
  0.00000000E+00  0.00000000E+00  0.00000000E+00
  0.00000000E+00  0.00000000E+00  0.00000000E+00
  0.00000000E+00  0.00000000E+00  0.00000000E+00
  0.00000000E+00  0.00000000E+00  0.00000000E+00
  0.00000000E+00  0.00000000E+00  0.00000000E+00
  0.00000000E+00  0.00000000E+00  0.00000000E+00
  0.00000000E+00  0.00000000E+00  0.00000000E+00
  0.00000000E+00  0.00000000E+00  0.00000000E+00
  0.00000000E+00  0.00000000E+00  0.00000000E+00
  0.00000000E+00  0.00000000E+00  0.00000000E+00
  0.00000000E+00  0.00000000E+00  0.00000000E+00
  0.00000000E+00  0.00000000E+00  0.00000000E+00
  0.00000000E+00  0.00000000E+00  0.00000000E+00
  0.00000000E+00  0.00000000E+00  0.00000000E+00
  0.00000000E+00  0.00000000E+00  0.00000000E+00
  0.00000000E+00  0.00000000E+00  0.00000000E+00
  0.00000000E+00  0.00000000E+00  0.00000000E+00
  0.00000000E+00  0.00000000E+00  0.00000000E+00
  0.00000000E+00  0.00000000E+00  0.00000000E+00
  0.00000000E+00  0.00000000E+00  0.00000000E+00
  0.00000000E+00  0.00000000E+00  0.00000000E+00
  0.00000000E+00  0.00000000E+00  0.00000000E+00
  0.00000000E+00  0.00000000E+00  0.00000000E+00
  0.00000000E+00  0.00000000E+00  0.00000000E+00
  0.00000000E+00  0.00000000E+00  0.00000000E+00
  0.00000000E+00  0.00000000E+00  0.00000000E+00
  0.00000000E+00  0.00000000E+00  0.00000000E+00
  0.00000000E+00  0.00000000E+00  0.00000000E+00
  0.00000000E+00  0.00000000E+00  0.00000000E+00
  0.00000000E+00  0.00000000E+00  0.00000000E+00
  0.00000000E+00  0.00000000E+00  0.00000000E+00
  0.00000000E+00  0.00000000E+00  0.00000000E+00
  0.00000000E+00  0.00000000E+00  0.00000000E+00
