-60.0%_BDM_Distortion_vac_1_Cd[0. 0. 0.]
   1.00000000000000     
    13.0867679999999993    0.0000000000000000    0.0000000000000000
     0.0000000000000000   13.0867679999999993    0.0000000000000000
     0.0000000000000000    0.0000000000000000   13.0867679999999993
   Cd   Te
    31    32
Direct
  0.0009681789335129  0.0086990088028318  0.4967793866736014
  0.0021839534034031  0.5090958155877612  0.9968732124005899
  0.0004231988884511  0.4900474932204668  0.4960307261805511
  0.5018088883861686  0.0093467986747197  0.9968157081012428
  0.4990922034080938  0.9981976866066659  0.4978202764487810
  0.5024538079568267  0.4895746665440335  0.9972681939494306
  0.5015934355892142  0.5001887192008765  0.4965812019643180
  0.0101020841364552  0.2529348162144102  0.2329853124615890
  0.9940866383572748  0.2534416182699418  0.7581714623879267
  0.0108533992006299  0.7482559483704034  0.2407527300051063
  0.9914957670887867  0.7477985450226277  0.7523548343737075
  0.4988962796360374  0.2464328176475846  0.2427442303531691
  0.5053507372308360  0.2469261675215945  0.7508761731060385
  0.5004848084113886  0.7474789310621452  0.2449542349090196
  0.5009627275405794  0.7477542612654311  0.7479057905028257
  0.2466109955546087  0.9855324610752469  0.2436363920524451
  0.2746775113817995  0.9673568257126782  0.7230979486450091
  0.2598319558670700  0.5057159501430331  0.2547745179212955
  0.2510058995481341  0.4952821020744457  0.7484617263571918
  0.7252221284560183  0.9675291013017226  0.2726520859143397
  0.7561531883639262  0.9851471625455933  0.7519172331762422
  0.7520327960138820  0.4951973490390761  0.2461767447616969
  0.7433389964368520  0.5071075226406907  0.7396156348355782
  0.2395973056621750  0.2525721633613734  0.0050148572085034
  0.2468900357402727  0.2468501041244217  0.4941049666205868
  0.2444213211081177  0.7501877246314502  0.0065121240076532
  0.2493652689965867  0.7459336848265201  0.4983418460789615
  0.7660416729493155  0.2537177609102410  0.9874699412821544
  0.7556574058568116  0.2467982482574549  0.5000056073652702
  0.7577977224782079  0.7488922477635077  0.9881542013209027
  0.7518054695543753  0.7480579720192607  0.4955553426366324
  0.1263879714659902  0.1238919261376384  0.3653633426814433
  0.0761895749524032  0.1319309907712692  0.9216433265060350
  0.1248029774109223  0.6212924221866666  0.3758138057883498
  0.1294189254071867  0.6266315906355140  0.8689138559919636
  0.6250947996632308  0.1245173054679716  0.3737199754827888
  0.6340728120910006  0.1238217610905014  0.8716664443902317
  0.6270470485779429  0.6228467626289693  0.3697726290099917
  0.6219038043276109  0.6228883816494829  0.8740148699874322
  0.1314631455955445  0.3920213293083516  0.1255659983864983
  0.1248027804913935  0.3672123226011951  0.6262170950500265
  0.1171376871989502  0.8799315502774857  0.1143987284532189
  0.1195396890764654  0.8714229324451167  0.6195774216380692
  0.6327699774030164  0.3646652706311872  0.1197924615392114
  0.6249915870996762  0.3723115736308735  0.6198301132079375
  0.6238854760135326  0.8719845120003515  0.1157528492093525
  0.6250098027436840  0.8724098573906149  0.6206554284220888
  0.3698162206094447  0.1229361262874249  0.1229803380121980
  0.3751484340241905  0.1251478835965059  0.6235121765961673
  0.3801089828537483  0.6216583120202632  0.1195824355334753
  0.3754046547018615  0.6219995682393993  0.6237656601408726
  0.9277241378738055  0.1308506770614983  0.0700999892177629
  0.8757823164458578  0.1233669277426004  0.6287238908015977
  0.8738291868082428  0.6255078283353668  0.1248412217540767
  0.8768160423896563  0.6221479376297681  0.6163644425492734
  0.3787710059815762  0.3710891614350254  0.3742056699234921
  0.3720284780090580  0.3657008263348895  0.8738990614317877
  0.3764267198763478  0.8707202340804016  0.3740571417888200
  0.3786143083638220  0.8724378054140700  0.8783765217723759
  0.8783165117555706  0.3649863943542513  0.3659854518914234
  0.8736881378513101  0.3929545276476818  0.8663806439826395
  0.8824930141835441  0.8721088492718505  0.3735814970314709
  0.8853590066175774  0.8778617772576593  0.8802248678255563
 
  0.00000000E+00  0.00000000E+00  0.00000000E+00
  0.00000000E+00  0.00000000E+00  0.00000000E+00
  0.00000000E+00  0.00000000E+00  0.00000000E+00
  0.00000000E+00  0.00000000E+00  0.00000000E+00
  0.00000000E+00  0.00000000E+00  0.00000000E+00
  0.00000000E+00  0.00000000E+00  0.00000000E+00
  0.00000000E+00  0.00000000E+00  0.00000000E+00
  0.00000000E+00  0.00000000E+00  0.00000000E+00
  0.00000000E+00  0.00000000E+00  0.00000000E+00
  0.00000000E+00  0.00000000E+00  0.00000000E+00
  0.00000000E+00  0.00000000E+00  0.00000000E+00
  0.00000000E+00  0.00000000E+00  0.00000000E+00
  0.00000000E+00  0.00000000E+00  0.00000000E+00
  0.00000000E+00  0.00000000E+00  0.00000000E+00
  0.00000000E+00  0.00000000E+00  0.00000000E+00
  0.00000000E+00  0.00000000E+00  0.00000000E+00
  0.00000000E+00  0.00000000E+00  0.00000000E+00
  0.00000000E+00  0.00000000E+00  0.00000000E+00
  0.00000000E+00  0.00000000E+00  0.00000000E+00
  0.00000000E+00  0.00000000E+00  0.00000000E+00
  0.00000000E+00  0.00000000E+00  0.00000000E+00
  0.00000000E+00  0.00000000E+00  0.00000000E+00
  0.00000000E+00  0.00000000E+00  0.00000000E+00
  0.00000000E+00  0.00000000E+00  0.00000000E+00
  0.00000000E+00  0.00000000E+00  0.00000000E+00
  0.00000000E+00  0.00000000E+00  0.00000000E+00
  0.00000000E+00  0.00000000E+00  0.00000000E+00
  0.00000000E+00  0.00000000E+00  0.00000000E+00
  0.00000000E+00  0.00000000E+00  0.00000000E+00
  0.00000000E+00  0.00000000E+00  0.00000000E+00
  0.00000000E+00  0.00000000E+00  0.00000000E+00
  0.00000000E+00  0.00000000E+00  0.00000000E+00
  0.00000000E+00  0.00000000E+00  0.00000000E+00
  0.00000000E+00  0.00000000E+00  0.00000000E+00
  0.00000000E+00  0.00000000E+00  0.00000000E+00
  0.00000000E+00  0.00000000E+00  0.00000000E+00
  0.00000000E+00  0.00000000E+00  0.00000000E+00
  0.00000000E+00  0.00000000E+00  0.00000000E+00
  0.00000000E+00  0.00000000E+00  0.00000000E+00
  0.00000000E+00  0.00000000E+00  0.00000000E+00
  0.00000000E+00  0.00000000E+00  0.00000000E+00
  0.00000000E+00  0.00000000E+00  0.00000000E+00
  0.00000000E+00  0.00000000E+00  0.00000000E+00
  0.00000000E+00  0.00000000E+00  0.00000000E+00
  0.00000000E+00  0.00000000E+00  0.00000000E+00
  0.00000000E+00  0.00000000E+00  0.00000000E+00
  0.00000000E+00  0.00000000E+00  0.00000000E+00
  0.00000000E+00  0.00000000E+00  0.00000000E+00
  0.00000000E+00  0.00000000E+00  0.00000000E+00
  0.00000000E+00  0.00000000E+00  0.00000000E+00
  0.00000000E+00  0.00000000E+00  0.00000000E+00
  0.00000000E+00  0.00000000E+00  0.00000000E+00
  0.00000000E+00  0.00000000E+00  0.00000000E+00
  0.00000000E+00  0.00000000E+00  0.00000000E+00
  0.00000000E+00  0.00000000E+00  0.00000000E+00
  0.00000000E+00  0.00000000E+00  0.00000000E+00
  0.00000000E+00  0.00000000E+00  0.00000000E+00
  0.00000000E+00  0.00000000E+00  0.00000000E+00
  0.00000000E+00  0.00000000E+00  0.00000000E+00
  0.00000000E+00  0.00000000E+00  0.00000000E+00
  0.00000000E+00  0.00000000E+00  0.00000000E+00
  0.00000000E+00  0.00000000E+00  0.00000000E+00
  0.00000000E+00  0.00000000E+00  0.00000000E+00
