-35.0%_Bond__vac_1_Cd[0. 0. 0.]_-dNELECT
   1.0000000000000000     
    13.0867679999999993    0.0000000000000000    0.0000000000000000
     0.0000000000000000   13.0867679999999993    0.0000000000000000
     0.0000000000000000    0.0000000000000000   13.0867679999999993
   Cd   Te
    31    32
Direct
  0.0134813025739434  0.0041786679552688  0.4960510058653036
  0.0135426628100124  0.5044165569913653 -0.0039277290148388
  0.0025717279199988  0.5041393623151295  0.4956733396717256
  0.5141606513330004  0.0042348809561325  0.9959471993746365
  0.4949331735851093  0.0040834596342339  0.4957827044881308
  0.4950589455792110  0.5042035177391617  0.9958665741857554
  0.5034911589049470  0.5041840159649421  0.4959399816411096
  0.9897166301767691  0.2499462024177507  0.2417215338035270
  0.9724347774871720  0.2791672118757150  0.7209976051599826
  0.9724703005969462  0.7293182907295358  0.2710536521461525
  0.9894231539843837  0.7583068960770125  0.7497881545602674
  0.5111384114554817  0.2616135387027432  0.2533653290063900
  0.4997620249075577  0.2534262383788874  0.7466161731447648
  0.4996745971522925  0.7547549675878377  0.2452384601632274
  0.5110795654105056  0.7465799140624763  0.7384925776235646
  0.2572155207052910  0.0124495463966836  0.2331070796496860
  0.2577339019479923 -0.0041776401362642  0.7585932240032340
  0.2515790404096235  0.5011591572286487  0.2411296574060403
  0.2512551410773772  0.5072680252165215  0.7505590917997921
  0.7541557484478554  0.0135272083632075  0.2391494125794668
  0.7539126937586892 -0.0049548339512833  0.7526513572412499
  0.7516739294447293  0.5048960016169732  0.2444256092400778
  0.7515267224518614  0.5034672397674257  0.7473350422257630
  0.2576676293602818  0.2414662223654424  0.0042158975604584
  0.2513568582004650  0.2498064712991681  0.4926965726850795
  0.2571670051627269  0.7671105986673051  0.9873969190125896
  0.2514355370253706  0.7587415364183676  0.4991001699201516
  0.7541215473841275  0.2477683009365538  0.0050846123956846
  0.7513531536857130  0.2524909623406779  0.4968637700109818
  0.7540440291376611  0.7611293679749640 -0.0131528684643689
  0.7513873259515218  0.7559420612534451  0.4950857659499653
  0.1276603473063126  0.1297378288929421  0.3641246126350487
  0.1359597633430415  0.0785968115577525  0.9214112970435554
  0.1298463172318763  0.6289783162583775  0.3710474295799658
  0.1275342504671082  0.6361553617447342  0.8702156779826443
  0.6269346577406792  0.1272369878804578  0.3747789212308881
  0.6308146508560126  0.1323573911087303  0.8679613534893287
  0.6264887936574286  0.6303022409019586  0.3697269995946593
  0.6270467719025690  0.6252806159253191  0.8728750715076866
  0.1277470737817679  0.3723067580002868  0.1213440523568739
  0.1297927227875492  0.3796739884692822  0.6204309905945385
  0.1355280052788485  0.9302256814557444  0.0698556533074394
  0.1278128648332133  0.8786701641591994  0.6278321314788908
  0.6268548967920294  0.3832256938973642  0.1189834008591144
  0.6264322975562318  0.3781059122965532  0.6220887771016819
  0.6307596399867015  0.8762839146208018  0.1240174643558424
  0.6266705932246575  0.8811641402503806  0.6170589101085902
  0.3966892149371123  0.1329092372569989  0.1249394923564678
  0.3704925395755215  0.1271549965349007  0.6258122389971629
  0.3704606476902667  0.6343926312181880  0.1184964032729117
  0.3759146476171257  0.6275856670968556  0.6194858259168105
  0.8843181967093390  0.1207332700879651  0.1121639099565176
  0.8765390985811682  0.1229553892851101  0.6188729703128314
  0.8767323466916643  0.6272924971973489  0.1147948815193519
  0.8753653365702445  0.6279156806286955  0.6194785899140698
  0.3759997088226046  0.3807969207648865  0.3723198139829361
  0.3705470805623375  0.3741670987215525  0.8729837860406345
  0.3703792286400996  0.8812015131656037  0.3658198477327624
  0.3969257310020156  0.8752567668898615  0.8671401643010092
  0.8754123304537393  0.3801987285220583  0.3722014488039040
  0.8766975619587617  0.3815483473879537  0.8771020012063723
  0.8767285083974536  0.8855533119420691  0.3730529301103686
  0.8842343070159251  0.8878361887340395  0.8794350773136075

  0.00000000E+00  0.00000000E+00  0.00000000E+00
  0.00000000E+00  0.00000000E+00  0.00000000E+00
  0.00000000E+00  0.00000000E+00  0.00000000E+00
  0.00000000E+00  0.00000000E+00  0.00000000E+00
  0.00000000E+00  0.00000000E+00  0.00000000E+00
  0.00000000E+00  0.00000000E+00  0.00000000E+00
  0.00000000E+00  0.00000000E+00  0.00000000E+00
  0.00000000E+00  0.00000000E+00  0.00000000E+00
  0.00000000E+00  0.00000000E+00  0.00000000E+00
  0.00000000E+00  0.00000000E+00  0.00000000E+00
  0.00000000E+00  0.00000000E+00  0.00000000E+00
  0.00000000E+00  0.00000000E+00  0.00000000E+00
  0.00000000E+00  0.00000000E+00  0.00000000E+00
  0.00000000E+00  0.00000000E+00  0.00000000E+00
  0.00000000E+00  0.00000000E+00  0.00000000E+00
  0.00000000E+00  0.00000000E+00  0.00000000E+00
  0.00000000E+00  0.00000000E+00  0.00000000E+00
  0.00000000E+00  0.00000000E+00  0.00000000E+00
  0.00000000E+00  0.00000000E+00  0.00000000E+00
  0.00000000E+00  0.00000000E+00  0.00000000E+00
  0.00000000E+00  0.00000000E+00  0.00000000E+00
  0.00000000E+00  0.00000000E+00  0.00000000E+00
  0.00000000E+00  0.00000000E+00  0.00000000E+00
  0.00000000E+00  0.00000000E+00  0.00000000E+00
  0.00000000E+00  0.00000000E+00  0.00000000E+00
  0.00000000E+00  0.00000000E+00  0.00000000E+00
  0.00000000E+00  0.00000000E+00  0.00000000E+00
  0.00000000E+00  0.00000000E+00  0.00000000E+00
  0.00000000E+00  0.00000000E+00  0.00000000E+00
  0.00000000E+00  0.00000000E+00  0.00000000E+00
  0.00000000E+00  0.00000000E+00  0.00000000E+00
  0.00000000E+00  0.00000000E+00  0.00000000E+00
  0.00000000E+00  0.00000000E+00  0.00000000E+00
  0.00000000E+00  0.00000000E+00  0.00000000E+00
  0.00000000E+00  0.00000000E+00  0.00000000E+00
  0.00000000E+00  0.00000000E+00  0.00000000E+00
  0.00000000E+00  0.00000000E+00  0.00000000E+00
  0.00000000E+00  0.00000000E+00  0.00000000E+00
  0.00000000E+00  0.00000000E+00  0.00000000E+00
  0.00000000E+00  0.00000000E+00  0.00000000E+00
  0.00000000E+00  0.00000000E+00  0.00000000E+00
  0.00000000E+00  0.00000000E+00  0.00000000E+00
  0.00000000E+00  0.00000000E+00  0.00000000E+00
  0.00000000E+00  0.00000000E+00  0.00000000E+00
  0.00000000E+00  0.00000000E+00  0.00000000E+00
  0.00000000E+00  0.00000000E+00  0.00000000E+00
  0.00000000E+00  0.00000000E+00  0.00000000E+00
  0.00000000E+00  0.00000000E+00  0.00000000E+00
  0.00000000E+00  0.00000000E+00  0.00000000E+00
  0.00000000E+00  0.00000000E+00  0.00000000E+00
  0.00000000E+00  0.00000000E+00  0.00000000E+00
  0.00000000E+00  0.00000000E+00  0.00000000E+00
  0.00000000E+00  0.00000000E+00  0.00000000E+00
  0.00000000E+00  0.00000000E+00  0.00000000E+00
  0.00000000E+00  0.00000000E+00  0.00000000E+00
  0.00000000E+00  0.00000000E+00  0.00000000E+00
  0.00000000E+00  0.00000000E+00  0.00000000E+00
  0.00000000E+00  0.00000000E+00  0.00000000E+00
  0.00000000E+00  0.00000000E+00  0.00000000E+00
  0.00000000E+00  0.00000000E+00  0.00000000E+00
  0.00000000E+00  0.00000000E+00  0.00000000E+00
  0.00000000E+00  0.00000000E+00  0.00000000E+00
  0.00000000E+00  0.00000000E+00  0.00000000E+00
