40.0%_BDM_Distortion_vac_1_Cd[0. 0. 0.]_
   1.00000000000000     
    13.0867679999999993    0.0000000000000000    0.0000000000000000
     0.0000000000000000   13.0867679999999993    0.0000000000000000
     0.0000000000000000    0.0000000000000000   13.0867679999999993
   Cd   Te
    31    32
Direct
  0.0007528705659592  0.9972836610350250  0.5014836683325485
  0.0013759591907889  0.4974720418522031  0.0007500938000183
  0.0023272308324370  0.4978016285758110  0.5005492361423907
  0.5013517055835046  0.9976238034369481  0.0010141480793094
  0.5014970976768662  0.9968864120609277  0.5007950237703909
  0.5012668415315461  0.4971178024127639  0.0009121427182644
  0.5018357019399918  0.4976811291898174  0.5001636717227373
  0.9949490175566059  0.2440360955228143  0.2469211310898184
  0.0096344825045789  0.2438411499189544  0.7552865369817460
  0.0074661308995612  0.7524932134205089  0.2465312307127550
  0.9937216840001589  0.7527583363808570  0.7550255627234359
  0.4994080353039587  0.2461419275867724  0.2492642127623234
  0.5020724240419914  0.2464270111475127  0.7517039241127825
  0.5027197635864906  0.7498357956725441  0.2482972892674322
  0.5013242962671477  0.7503001498450848  0.7528338010881678
  0.2445806720809108 -0.0054981698808237  0.2468431278527789
  0.2445590294189469  0.0033710395663008  0.7556524791414986
  0.2513486426021223  0.4980516932184331  0.2494432853524646
  0.2524311142806053  0.4991431097760977  0.7517855055249962
  0.7574284409169102  0.0024957541662145  0.2470562711826559
  0.7577515172534517  0.9938864714247231  0.7553957836393047
  0.7521516339072968  0.4974413771196947  0.2489324995306287
  0.7513878269298506  0.4976590075321212  0.7521724616333018
  0.2448193652609983  0.2437496021219121  0.9959466378436150
  0.2511793714297800  0.2466191777548551  0.5008435885150098
  0.2447248577157185  0.7523028678818243  0.0038190298818142
  0.2517430691605181  0.7494529097415087  0.5019533364184643
  0.7573804607571731  0.2433281658705209  0.0043839321326508
  0.7514809875521976  0.2464854750633305  0.5010186920561607
  0.7574586749186227  0.7522947623150533  0.9962708257570723
  0.7516014645414529  0.7472351203182320  0.5000935485014667
  0.1255897625524270  0.1232855427412488  0.3755955286461093
  0.1162566437945315  0.1139487675649709  0.8859799666764275
  0.1273925712858019  0.6239715482068802  0.3758387787479841
  0.1255655049723640  0.6238877427742625  0.8750375141493101
  0.6260725550034950  0.1221604413051964  0.3747477391092132
  0.6280894883246365  0.1220501087177169  0.8765071452379612
  0.6259788778242399  0.6226794225482171  0.3742150921515105
  0.6262356892136419  0.6239586336493335  0.8771836185356994
  0.1261802637590043  0.3720180210347699  0.1262708664313703
  0.1279159696607252  0.3734564079642130  0.6261693061241320
  0.1170006997911052  0.8814533400939769  0.1175146684293499
  0.1261049103251398  0.8730063938162042  0.6276368983419572
  0.6264706472239586  0.3708919508705994  0.1252975973193443
  0.6260409733701691  0.3725795331606395  0.6260460521731891
  0.6289325196128872  0.8742157719984280  0.1249946691685831
  0.6277788132629580  0.8732828029271233  0.6267836646831870
  0.3738074136152739  0.1219126916410540  0.1248537042854887
  0.3760524259917320  0.1217745712507069  0.6268821697709518
  0.3759261732057310  0.6245896245898355  0.1245917311937436
  0.3780227813952067  0.6238434644462709  0.6261501483477189
  0.8855115893553231  0.1146931374136695  0.1183595220142295
  0.8767233074317125  0.1235728112832359  0.6275796079924800
  0.8766676814856014  0.6239949071255481  0.1259687269152317
  0.8759349769808057  0.6224331706530253  0.6259592873586044
  0.3761682722928683  0.3725695478419749  0.3756211832807025
  0.3760376175650449  0.3716322959903658  0.8763127316363131
  0.3758348922583399  0.8735553481451434  0.3741053765953458
  0.3740057879038034  0.8742007870990668  0.8764788364728840
  0.8758352984343750  0.3727185761239421  0.3759977660231887
  0.8765990550878490  0.3714702350464276  0.8754387490506954
  0.8760522403215163  0.8721619159794523  0.3751303829731644
  0.8855352264895505  0.8816189639480225  0.8852922918958847
 
  0.00000000E+00  0.00000000E+00  0.00000000E+00
  0.00000000E+00  0.00000000E+00  0.00000000E+00
  0.00000000E+00  0.00000000E+00  0.00000000E+00
  0.00000000E+00  0.00000000E+00  0.00000000E+00
  0.00000000E+00  0.00000000E+00  0.00000000E+00
  0.00000000E+00  0.00000000E+00  0.00000000E+00
  0.00000000E+00  0.00000000E+00  0.00000000E+00
  0.00000000E+00  0.00000000E+00  0.00000000E+00
  0.00000000E+00  0.00000000E+00  0.00000000E+00
  0.00000000E+00  0.00000000E+00  0.00000000E+00
  0.00000000E+00  0.00000000E+00  0.00000000E+00
  0.00000000E+00  0.00000000E+00  0.00000000E+00
  0.00000000E+00  0.00000000E+00  0.00000000E+00
  0.00000000E+00  0.00000000E+00  0.00000000E+00
  0.00000000E+00  0.00000000E+00  0.00000000E+00
  0.00000000E+00  0.00000000E+00  0.00000000E+00
  0.00000000E+00  0.00000000E+00  0.00000000E+00
  0.00000000E+00  0.00000000E+00  0.00000000E+00
  0.00000000E+00  0.00000000E+00  0.00000000E+00
  0.00000000E+00  0.00000000E+00  0.00000000E+00
  0.00000000E+00  0.00000000E+00  0.00000000E+00
  0.00000000E+00  0.00000000E+00  0.00000000E+00
  0.00000000E+00  0.00000000E+00  0.00000000E+00
  0.00000000E+00  0.00000000E+00  0.00000000E+00
  0.00000000E+00  0.00000000E+00  0.00000000E+00
  0.00000000E+00  0.00000000E+00  0.00000000E+00
  0.00000000E+00  0.00000000E+00  0.00000000E+00
  0.00000000E+00  0.00000000E+00  0.00000000E+00
  0.00000000E+00  0.00000000E+00  0.00000000E+00
  0.00000000E+00  0.00000000E+00  0.00000000E+00
  0.00000000E+00  0.00000000E+00  0.00000000E+00
  0.00000000E+00  0.00000000E+00  0.00000000E+00
  0.00000000E+00  0.00000000E+00  0.00000000E+00
  0.00000000E+00  0.00000000E+00  0.00000000E+00
  0.00000000E+00  0.00000000E+00  0.00000000E+00
  0.00000000E+00  0.00000000E+00  0.00000000E+00
  0.00000000E+00  0.00000000E+00  0.00000000E+00
  0.00000000E+00  0.00000000E+00  0.00000000E+00
  0.00000000E+00  0.00000000E+00  0.00000000E+00
  0.00000000E+00  0.00000000E+00  0.00000000E+00
  0.00000000E+00  0.00000000E+00  0.00000000E+00
  0.00000000E+00  0.00000000E+00  0.00000000E+00
  0.00000000E+00  0.00000000E+00  0.00000000E+00
  0.00000000E+00  0.00000000E+00  0.00000000E+00
  0.00000000E+00  0.00000000E+00  0.00000000E+00
  0.00000000E+00  0.00000000E+00  0.00000000E+00
  0.00000000E+00  0.00000000E+00  0.00000000E+00
  0.00000000E+00  0.00000000E+00  0.00000000E+00
  0.00000000E+00  0.00000000E+00  0.00000000E+00
  0.00000000E+00  0.00000000E+00  0.00000000E+00
  0.00000000E+00  0.00000000E+00  0.00000000E+00
  0.00000000E+00  0.00000000E+00  0.00000000E+00
  0.00000000E+00  0.00000000E+00  0.00000000E+00
  0.00000000E+00  0.00000000E+00  0.00000000E+00
  0.00000000E+00  0.00000000E+00  0.00000000E+00
  0.00000000E+00  0.00000000E+00  0.00000000E+00
  0.00000000E+00  0.00000000E+00  0.00000000E+00
  0.00000000E+00  0.00000000E+00  0.00000000E+00
  0.00000000E+00  0.00000000E+00  0.00000000E+00
  0.00000000E+00  0.00000000E+00  0.00000000E+00
  0.00000000E+00  0.00000000E+00  0.00000000E+00
  0.00000000E+00  0.00000000E+00  0.00000000E+00
  0.00000000E+00  0.00000000E+00  0.00000000E+00
