-27.5%_Bond__vac_1_Cd[0. 0. 0.]_-dNELECT
   1.0000000000000000     
    13.0867679999999993    0.0000000000000000    0.0000000000000000
     0.0000000000000000   13.0867679999999993    0.0000000000000000
     0.0000000000000000    0.0000000000000000   13.0867679999999993
   Cd   Te
    31    32
Direct
  0.0136805808989554  0.0042264849795371  0.4960954034139302
  0.0138346313655209  0.5043775921635315 -0.0038636791464071
  0.0027189116790249  0.5040659585688101  0.4957456875670124
  0.5143424928813836  0.0043315960668076  0.9960225504315204
  0.4953592657982369  0.0040396214999075  0.4957974668275653
  0.4953811844240263  0.5041958598957702  0.9959077027231469
  0.5038015615936999  0.5041385654942956  0.4960113693789706
  0.9899197047654736  0.2500164790841073  0.2417070292938770
  0.9729186004776270  0.2792048096540559  0.7209770138475258
 -0.0269786469263230  0.7291403505645183  0.2711282499206077
  0.9895530416566805  0.7582549629596413  0.7497613598682228
  0.5114972033679929  0.2615206414141534  0.2532912757795573
  0.5000109198509828  0.2533181594804332  0.7466868460859261
  0.4997919447557730  0.7547812178540778  0.2451889802008148
  0.5115012771923682  0.7465422443976034  0.7385632964649298
  0.2575285657639967  0.0125307773729678  0.2332075295072169
  0.2580493657052262 -0.0041637838864104  0.7585397232513423
  0.2520079026167953  0.5011028765769195  0.2410566101807792
  0.2516424768821043  0.5074168175646153  0.7506120629402069
  0.7545932692415201  0.0133966425338441  0.2390199858852571
  0.7542000207357688 -0.0048941593115517  0.7527142513739018
  0.7519671465047741  0.5050016483830866  0.2444686663517939
  0.7518270466855339  0.5035209086109492  0.7474402157493778
  0.2578729660171107  0.2414856910607246  0.0041376759354753
  0.2516927858492903  0.2497311006228058  0.4926637597168174
  0.2574647531942354  0.7673272598451844  0.9871935934077343
  0.2516531385783249  0.7587086544970978  0.4990845614627913
  0.7544276345828285  0.2478844254319053  0.0049911546263672
  0.7515909132617089  0.2525463863522412  0.4968866662559470
  0.7542641259647941  0.7610788014014219 -0.0130371602033037
  0.7515800389138039  0.7558993470505673  0.4949335088369169
  0.1278540060296224  0.1298017950764185  0.3641585969655725
  0.1362934933150193  0.0786855409874245  0.9213057484024244
  0.1302144164476466  0.6287235942991485  0.3712233874047094
  0.1277602898784565  0.6361723963085114  0.8701846046230233
  0.6273314928821735  0.1271391175691586  0.3748292812116175
  0.6312012291260332  0.1323482146052217  0.8680677951437921
  0.6266277397272619  0.6303219227123581  0.3696461718239428
  0.6273436872891694  0.6252992130292714  0.8728960083889087
  0.1281157337906305  0.3724110456259691  0.1214743043813107
  0.1301065666563132  0.3796300038238847  0.6204918896093351
  0.1359341570095209  0.9303674173079796  0.0698043944444697
  0.1279976001711634  0.8786785198759435  0.6278199869237762
  0.6271982373036762  0.3832531223687529  0.1190275449723519
  0.6266975645222840  0.3780241083517609  0.6221914767818520
  0.6309676893097032  0.8762689359927256  0.1241087809656669
  0.6271089186793511  0.8811083760108320  0.6169926310420826
  0.3969780181273613  0.1330088365753127  0.1249350345563416
  0.3708509874184673  0.1271677085845888  0.6257400103431302
  0.3706726196736641  0.6344681311922338  0.1183970887507401
  0.3761987411046777  0.6276644955200551  0.6194798394329339
  0.8845233433037430  0.1206989556325399  0.1120313451703809
  0.8768711018635184  0.1230225063915743  0.6188953065921498
  0.8770924282670655  0.6272694965791747  0.1149166626371477
  0.8755799387779806  0.6278903522578495  0.6193284756402883
  0.3763863643472237  0.3807123560535955  0.3723783154407650
  0.3707857622066482  0.3741637558163575  0.8729552708323027
  0.3705910163499723  0.8811974820231163  0.3658281587102064
  0.3972419501531090  0.8752769351964811  0.8670309301273363
  0.8756660698798273  0.3801435722738484  0.3722604917606151
  0.8770744799181879  0.3815686831496386  0.8769910565175075
  0.8771358276375926  0.8855076863728006  0.3730129257682699
  0.8844987045537167  0.8877217842518543  0.8793631266992454

  0.00000000E+00  0.00000000E+00  0.00000000E+00
  0.00000000E+00  0.00000000E+00  0.00000000E+00
  0.00000000E+00  0.00000000E+00  0.00000000E+00
  0.00000000E+00  0.00000000E+00  0.00000000E+00
  0.00000000E+00  0.00000000E+00  0.00000000E+00
  0.00000000E+00  0.00000000E+00  0.00000000E+00
  0.00000000E+00  0.00000000E+00  0.00000000E+00
  0.00000000E+00  0.00000000E+00  0.00000000E+00
  0.00000000E+00  0.00000000E+00  0.00000000E+00
  0.00000000E+00  0.00000000E+00  0.00000000E+00
  0.00000000E+00  0.00000000E+00  0.00000000E+00
  0.00000000E+00  0.00000000E+00  0.00000000E+00
  0.00000000E+00  0.00000000E+00  0.00000000E+00
  0.00000000E+00  0.00000000E+00  0.00000000E+00
  0.00000000E+00  0.00000000E+00  0.00000000E+00
  0.00000000E+00  0.00000000E+00  0.00000000E+00
  0.00000000E+00  0.00000000E+00  0.00000000E+00
  0.00000000E+00  0.00000000E+00  0.00000000E+00
  0.00000000E+00  0.00000000E+00  0.00000000E+00
  0.00000000E+00  0.00000000E+00  0.00000000E+00
  0.00000000E+00  0.00000000E+00  0.00000000E+00
  0.00000000E+00  0.00000000E+00  0.00000000E+00
  0.00000000E+00  0.00000000E+00  0.00000000E+00
  0.00000000E+00  0.00000000E+00  0.00000000E+00
  0.00000000E+00  0.00000000E+00  0.00000000E+00
  0.00000000E+00  0.00000000E+00  0.00000000E+00
  0.00000000E+00  0.00000000E+00  0.00000000E+00
  0.00000000E+00  0.00000000E+00  0.00000000E+00
  0.00000000E+00  0.00000000E+00  0.00000000E+00
  0.00000000E+00  0.00000000E+00  0.00000000E+00
  0.00000000E+00  0.00000000E+00  0.00000000E+00
  0.00000000E+00  0.00000000E+00  0.00000000E+00
  0.00000000E+00  0.00000000E+00  0.00000000E+00
  0.00000000E+00  0.00000000E+00  0.00000000E+00
  0.00000000E+00  0.00000000E+00  0.00000000E+00
  0.00000000E+00  0.00000000E+00  0.00000000E+00
  0.00000000E+00  0.00000000E+00  0.00000000E+00
  0.00000000E+00  0.00000000E+00  0.00000000E+00
  0.00000000E+00  0.00000000E+00  0.00000000E+00
  0.00000000E+00  0.00000000E+00  0.00000000E+00
  0.00000000E+00  0.00000000E+00  0.00000000E+00
  0.00000000E+00  0.00000000E+00  0.00000000E+00
  0.00000000E+00  0.00000000E+00  0.00000000E+00
  0.00000000E+00  0.00000000E+00  0.00000000E+00
  0.00000000E+00  0.00000000E+00  0.00000000E+00
  0.00000000E+00  0.00000000E+00  0.00000000E+00
  0.00000000E+00  0.00000000E+00  0.00000000E+00
  0.00000000E+00  0.00000000E+00  0.00000000E+00
  0.00000000E+00  0.00000000E+00  0.00000000E+00
  0.00000000E+00  0.00000000E+00  0.00000000E+00
  0.00000000E+00  0.00000000E+00  0.00000000E+00
  0.00000000E+00  0.00000000E+00  0.00000000E+00
  0.00000000E+00  0.00000000E+00  0.00000000E+00
  0.00000000E+00  0.00000000E+00  0.00000000E+00
  0.00000000E+00  0.00000000E+00  0.00000000E+00
  0.00000000E+00  0.00000000E+00  0.00000000E+00
  0.00000000E+00  0.00000000E+00  0.00000000E+00
  0.00000000E+00  0.00000000E+00  0.00000000E+00
  0.00000000E+00  0.00000000E+00  0.00000000E+00
  0.00000000E+00  0.00000000E+00  0.00000000E+00
  0.00000000E+00  0.00000000E+00  0.00000000E+00
  0.00000000E+00  0.00000000E+00  0.00000000E+00
  0.00000000E+00  0.00000000E+00  0.00000000E+00
