-45.0%_Bond__vac_1_Cd[0. 0. 0.]_-dNELECT
   1.0000000000000000     
    13.0867679999999993    0.0000000000000000    0.0000000000000000
     0.0000000000000000   13.0867679999999993    0.0000000000000000
     0.0000000000000000    0.0000000000000000   13.0867679999999993
   Cd   Te
    31    32
Direct
  0.0131532756304698  0.0042052387649360  0.4961069234501883
  0.0131573268651374  0.5043877019873690 -0.0039206258121467
  0.0021292823542518  0.5040174221967346  0.4958340394289686
  0.5138086732853325  0.0042806142730773  0.9960635552835369
  0.4944612605677699  0.0041024759006442  0.4956062215723496
  0.4945392811833009  0.5042287077424141  0.9958742075282127
  0.5031659678417417  0.5042378839893795  0.4959026926140208
  0.9893251729939827  0.2498952809104396  0.2417756547092527
  0.9719920027397541  0.2791586776769100  0.7209066185171925
  0.9720683516183187  0.7292744395114623  0.2711084067917061
  0.9890207822807211  0.7582940488320388  0.7498976087300899
  0.5106972285166224  0.2616781163330310  0.2531995181440240
  0.4994844555874158  0.2534188905655823  0.7465675775548947
  0.4993710855892798  0.7547356339233440  0.2453188308351713
  0.5105339744811646  0.7467242354651134  0.7384538546614206
  0.2567802068808693  0.0124712431707139  0.2330484218544377
  0.2574012460895904 -0.0040437010818520  0.7585953457398386
  0.2511916553296344  0.5011170236026753  0.2411576637405436
  0.2509488717128290  0.5071914439002400  0.7505819124628142
  0.7538893239942618  0.0135946882930668  0.2391192931949693
  0.7535342453727965 -0.0050232409600407  0.7526562861026153
  0.7512749657056147  0.5048459385717673  0.2444644928924239
  0.7510703798050971  0.5035257251202143  0.7474352262078359
  0.2571310068893387  0.2414617218736529  0.0041126172444901
  0.2510807964006722  0.2498152516238025  0.4927131166756719
  0.2567703570493544  0.7671732316045211  0.9874165367055586
  0.2508678978355145  0.7587448127375885  0.4991201275445311
  0.7537817681334843  0.2477548745494988  0.0050680887218852
  0.7508589995842466  0.2525206229960018  0.4967322268500274
  0.7535548607658560  0.7610210201790227 -0.0131029124886718
  0.7510959337816350  0.7559899557574926  0.4951946372865635
  0.1273717326799001  0.1297574138563603  0.3641565152152191
  0.1354710834537993  0.0785496053839969  0.9213338683715594
  0.1293828522121273  0.6288411036594284  0.3711466566276874
  0.1272625567344712  0.6361323798510512  0.8702422723661656
  0.6264528065096537  0.1272261901371994  0.3746007950644287
  0.6304918373530399  0.1323258546882554  0.8679695103067410
  0.6262450164665160  0.6303152026663491  0.3697203915377188
  0.6264644434064210  0.6253519038993250  0.8728435913554512
  0.1273647416663117  0.3722531274074167  0.1213473472437084
  0.1294261327980971  0.3795199761859747  0.6205381225716172
  0.1350976476028059  0.9302806826501480  0.0697599402663075
  0.1273690656966613  0.8786763038966158  0.6279786763795148
  0.6264565925733121  0.3832755162785094  0.1188939718634734
  0.6261150543783105  0.3781480255967218  0.6220445275628761
  0.6304213162916985  0.8762735611814712  0.1240930575839752
  0.6262022101835986  0.8812102773695023  0.6169586953471256
  0.3961947006631878  0.1329828541457882  0.1248552039838046
  0.3702014248573778  0.1272009126072891  0.6257380207851776
  0.3700526858578765  0.6344602586936740  0.1186245344489970
  0.3755069043573180  0.6275723611174908  0.6194407294042249
  0.8840425785967028  0.1206738426517475  0.1120641929718318
  0.8760661024179079  0.1229979479695789  0.6187677124322848
  0.8763177403265116  0.6272504779106051  0.1148066054520031
  0.8750157127288436  0.6278786835721774  0.6195258334296774
  0.3756312466493102  0.3807977625246761  0.3723364494580030
  0.3701378011663514  0.3740906917838026  0.8729409995222134
  0.3698182742386104  0.8811718398233690  0.3657397914490008
  0.3965287796513479  0.8753647980198539  0.8671864367428823
  0.8750553263926489  0.3801965695113564  0.3722770974416635
  0.8763102783767108  0.3815414346715132  0.8771284115045921
  0.8764141295831961  0.8855337883274265  0.3731090010872998
  0.8838155872633332  0.8877926719504836  0.8795228754783766

  0.00000000E+00  0.00000000E+00  0.00000000E+00
  0.00000000E+00  0.00000000E+00  0.00000000E+00
  0.00000000E+00  0.00000000E+00  0.00000000E+00
  0.00000000E+00  0.00000000E+00  0.00000000E+00
  0.00000000E+00  0.00000000E+00  0.00000000E+00
  0.00000000E+00  0.00000000E+00  0.00000000E+00
  0.00000000E+00  0.00000000E+00  0.00000000E+00
  0.00000000E+00  0.00000000E+00  0.00000000E+00
  0.00000000E+00  0.00000000E+00  0.00000000E+00
  0.00000000E+00  0.00000000E+00  0.00000000E+00
  0.00000000E+00  0.00000000E+00  0.00000000E+00
  0.00000000E+00  0.00000000E+00  0.00000000E+00
  0.00000000E+00  0.00000000E+00  0.00000000E+00
  0.00000000E+00  0.00000000E+00  0.00000000E+00
  0.00000000E+00  0.00000000E+00  0.00000000E+00
  0.00000000E+00  0.00000000E+00  0.00000000E+00
  0.00000000E+00  0.00000000E+00  0.00000000E+00
  0.00000000E+00  0.00000000E+00  0.00000000E+00
  0.00000000E+00  0.00000000E+00  0.00000000E+00
  0.00000000E+00  0.00000000E+00  0.00000000E+00
  0.00000000E+00  0.00000000E+00  0.00000000E+00
  0.00000000E+00  0.00000000E+00  0.00000000E+00
  0.00000000E+00  0.00000000E+00  0.00000000E+00
  0.00000000E+00  0.00000000E+00  0.00000000E+00
  0.00000000E+00  0.00000000E+00  0.00000000E+00
  0.00000000E+00  0.00000000E+00  0.00000000E+00
  0.00000000E+00  0.00000000E+00  0.00000000E+00
  0.00000000E+00  0.00000000E+00  0.00000000E+00
  0.00000000E+00  0.00000000E+00  0.00000000E+00
  0.00000000E+00  0.00000000E+00  0.00000000E+00
  0.00000000E+00  0.00000000E+00  0.00000000E+00
  0.00000000E+00  0.00000000E+00  0.00000000E+00
  0.00000000E+00  0.00000000E+00  0.00000000E+00
  0.00000000E+00  0.00000000E+00  0.00000000E+00
  0.00000000E+00  0.00000000E+00  0.00000000E+00
  0.00000000E+00  0.00000000E+00  0.00000000E+00
  0.00000000E+00  0.00000000E+00  0.00000000E+00
  0.00000000E+00  0.00000000E+00  0.00000000E+00
  0.00000000E+00  0.00000000E+00  0.00000000E+00
  0.00000000E+00  0.00000000E+00  0.00000000E+00
  0.00000000E+00  0.00000000E+00  0.00000000E+00
  0.00000000E+00  0.00000000E+00  0.00000000E+00
  0.00000000E+00  0.00000000E+00  0.00000000E+00
  0.00000000E+00  0.00000000E+00  0.00000000E+00
  0.00000000E+00  0.00000000E+00  0.00000000E+00
  0.00000000E+00  0.00000000E+00  0.00000000E+00
  0.00000000E+00  0.00000000E+00  0.00000000E+00
  0.00000000E+00  0.00000000E+00  0.00000000E+00
  0.00000000E+00  0.00000000E+00  0.00000000E+00
  0.00000000E+00  0.00000000E+00  0.00000000E+00
  0.00000000E+00  0.00000000E+00  0.00000000E+00
  0.00000000E+00  0.00000000E+00  0.00000000E+00
  0.00000000E+00  0.00000000E+00  0.00000000E+00
  0.00000000E+00  0.00000000E+00  0.00000000E+00
  0.00000000E+00  0.00000000E+00  0.00000000E+00
  0.00000000E+00  0.00000000E+00  0.00000000E+00
  0.00000000E+00  0.00000000E+00  0.00000000E+00
  0.00000000E+00  0.00000000E+00  0.00000000E+00
  0.00000000E+00  0.00000000E+00  0.00000000E+00
  0.00000000E+00  0.00000000E+00  0.00000000E+00
  0.00000000E+00  0.00000000E+00  0.00000000E+00
  0.00000000E+00  0.00000000E+00  0.00000000E+00
  0.00000000E+00  0.00000000E+00  0.00000000E+00
