-40.0%__vac_1_Ti[0.         0.16666667 0
   1.00000000000000     
    11.3214380000000006    0.0000000000000000    0.0000000000000000
     0.0000000000000000   11.3214380000000006    0.0000000000000000
     0.0000000000000000    0.0000000000000000    9.5793049999999997
   Ti   O 
    35    72
Direct
  0.0020181194571887  0.4851341946170905  0.2481787391269710
  0.0011548165389081  0.8123679289354941  0.2532904775492963
  0.3565601792471542  0.1674103343925863  0.2449861259636180
  0.3348699889819500  0.4995216045693465  0.2498595155861736
  0.3356104730448508  0.8331624315158868  0.2494778845030836
  0.6831415953808928  0.1671236285974163  0.2501414422484791
  0.6699911831055951  0.4989641601033107  0.2496388684304137
  0.6693755279677711  0.8342808637431673  0.2491341204403950
  0.9962008317364022  0.0036160041492276  0.9724115620349859
  0.9980218745099005  0.3177591143686775  0.0070907718395386
 -0.0012525491214291  0.6592736421910439 -0.0014109869549618
  0.3336512269461601 -0.0000987445946292 -0.0007725268270379
  0.3329364883713660  0.3335273381318695  0.9980488961387891
  0.3342612545563531  0.6669159377225835  0.0004045038839062
  0.6653668203466501  0.0005204613714920  0.0001227131824429
  0.6679737156503672  0.3331229983854789 -0.0010351548472527
  0.6669536035576281  0.6669263210490712  0.0011499108032890
  0.1730783700611595  0.9951275892943319  0.7492380866066917
  0.1620906791776204  0.3425288702988040  0.7572125974500714
  0.1676604061111986  0.6681278464642232  0.7526686918638982
  0.5000111980963566  0.0008360270253222  0.7455675474721356
  0.4989835513059416  0.3356708872431636  0.7506307327988726
  0.5013719073334761  0.6672608290711556  0.7495079482049736
  0.8255183102870686  0.0056142553835600  0.7414297455924138
  0.8337156719769262  0.3339563791921375  0.7493026721503883
  0.8327605506981303  0.6686309573809006  0.7481000265056826
  0.1651131263528284  0.1718357295283442  0.5259988364376182
  0.1684699561972139  0.5027098936578839  0.4985612015197253
  0.1684410657701782  0.8343973375475351  0.4993810078517106
  0.5101457465128435  0.1695249444949267  0.5001618270353845
  0.5020466766706820  0.5011679729185909  0.4978436354130230
  0.5015397627649824  0.8335565986722422  0.4982280281930712
  0.8512135522165750  0.1702125654444699  0.4911833925072975
  0.8363455397257208  0.5001303977079399  0.4996512125021418
  0.8351148084122522  0.8354555908049599  0.5009221276738345
  0.9971555511531089  0.1587887666541159  0.0107927408883913
 -0.0008051459029755  0.5040957265987794  0.0374055857062944
 -0.0007599027815420  0.8527663973913590  0.0671714671734166
  0.3349703503894200  0.1668048091961661  0.0383241842117384
  0.3345439096158201  0.5010791389985506  0.0435285508986993
  0.3375227033473630  0.8339965136912291  0.0435388197573484
  0.6711654854079234  0.1669531573561729  0.0422078672414065
  0.6681383967395035  0.5011058032906610  0.0429316497595767
  0.6650682139592228  0.8340277176662056  0.0429355093551391
  0.0454179442579844  0.0474433957929796  0.2406395860129554
  0.0057095609368008  0.3343100631263633  0.1987341427630779
  0.0013743430488977  0.6620903788360905  0.2088715807878491
  0.3309099821770857  0.0019224557734844  0.2051361680383431
  0.3298310359207818  0.3320463239189723  0.2063223039569637
  0.3324362333483561  0.6676555648609368  0.2075938610863380
  0.6682895045724272  0.0002754087310562  0.2049171980145551
  0.6697554326570924  0.3338624374199290  0.2066267037020343
  0.6696055889654361  0.6677798528385311  0.2076042512397570
  0.0101757622577564  0.1708838821169262  0.4865354570898653
  0.0019690991804970  0.4969805025766117  0.4566274057963031
  0.0017805378535574  0.8331568970837304  0.4603668145647411
  0.3149414762958869  0.1691083322367463  0.4304502191930747
  0.3348100174273245  0.5032351724960858  0.4559065244548312
  0.3345800573635204  0.8307502183530830  0.4551979046178836
  0.6649030084423377  0.1693321347519060  0.4618886660564561
  0.6676890590415692  0.4999413813803669  0.4559258609134746
  0.6675961729010157  0.8338361626784168  0.4552684973991727
  0.1202185289067874  0.1217822225159102  0.2560262869266485
  0.1685571071915951  0.4999756978057723  0.2938173385635123
  0.1666276655606740  0.8378464760102938  0.2934954759755833
  0.5067936537563684  0.1671022753731767  0.2903516371393158
  0.5010215503468683  0.4993181973076012  0.2912700757547216
  0.5009654899182399  0.8360895022872327  0.2912218350422434
  0.8340231828002037  0.1627998871353299  0.2997317838697136
  0.8350296592657976  0.4985829935083183  0.2922118460056155
  0.8366178471392189  0.8394260958886507  0.2923213535722200
  0.1723409698646157 -0.0005289266789099  0.5458340052577270
  0.1726310106305416  0.3384666370889918  0.5497489995393086
  0.1673181227598622  0.6676558739781141  0.5441033471115769
  0.4952596760204840  0.0015805729774422  0.5397008630955759
  0.4948713369496380  0.3343208468034156  0.5409632622451093
  0.5011546525377176  0.6674292921198700  0.5420362066269928
  0.8339286164959085  0.0021197386903565  0.5392317128445473
  0.8337533909170802  0.3346855599002357  0.5422257557717920
  0.8349562544619595  0.6674154106169167  0.5410841637575443
  0.1724298961149778  0.1680568324599826  0.7169273286448189
  0.1662350753856583  0.5042155345953574  0.7111588615754163
  0.1698684129398169  0.8326524012657919  0.7079131310936655
  0.4986977753038563  0.1682902633501789  0.7041444191979858
  0.5021898682450795  0.5009922729074641  0.7055275398944904
  0.5019410285727380  0.8338926107056913  0.7045939392140926
  0.8330498253847535  0.1680725257881844  0.7095981811596342
  0.8339647935361569  0.5019583696460248  0.7059305431115602
  0.8305448238817567  0.8341290286496488  0.7035552791447928
  0.1686988690892076 -0.0037202228686347  0.9529134756716793
  0.1661278020162447  0.3348765627274248  0.9594272821056556
  0.1667996323019956  0.6733510162812868  0.9588894291413227
  0.5005579164801778  0.0015562711735088  0.9544596428258366
  0.5007322660278929  0.3338087722185150  0.9576509491793683
  0.5009064443952757  0.6676220369956498  0.9567004924877677
  0.8297037516917160  0.9960498433686851  0.9490060356960521
  0.8334175822295415  0.3351530164487140  0.9564051023187934
  0.8340108119537087  0.6736126000614067  0.9577331950278529
  0.0001143566787031  0.9956566503702278  0.7817025511926569
  0.0000451849798057  0.3353919824785986  0.7889102205667157
  0.0000688949320045  0.6695035150547154  0.7946028831162329
  0.3355583421390939  0.9982009392842346  0.7906891500566919
  0.3341024413008772  0.3377264042805960  0.7951518159500921
  0.3344203629792303  0.6663086687464439  0.7940184349612045
  0.6639762915907830  0.0020219372488598  0.7874136845065266
  0.6661647758339699  0.3342836013434796  0.7928181513033898
  0.6673896499663174  0.6662177248941780  0.7932646301952259
 
  0.00000000E+00  0.00000000E+00  0.00000000E+00
  0.00000000E+00  0.00000000E+00  0.00000000E+00
  0.00000000E+00  0.00000000E+00  0.00000000E+00
  0.00000000E+00  0.00000000E+00  0.00000000E+00
  0.00000000E+00  0.00000000E+00  0.00000000E+00
  0.00000000E+00  0.00000000E+00  0.00000000E+00
  0.00000000E+00  0.00000000E+00  0.00000000E+00
  0.00000000E+00  0.00000000E+00  0.00000000E+00
  0.00000000E+00  0.00000000E+00  0.00000000E+00
  0.00000000E+00  0.00000000E+00  0.00000000E+00
  0.00000000E+00  0.00000000E+00  0.00000000E+00
  0.00000000E+00  0.00000000E+00  0.00000000E+00
  0.00000000E+00  0.00000000E+00  0.00000000E+00
  0.00000000E+00  0.00000000E+00  0.00000000E+00
  0.00000000E+00  0.00000000E+00  0.00000000E+00
  0.00000000E+00  0.00000000E+00  0.00000000E+00
  0.00000000E+00  0.00000000E+00  0.00000000E+00
  0.00000000E+00  0.00000000E+00  0.00000000E+00
  0.00000000E+00  0.00000000E+00  0.00000000E+00
  0.00000000E+00  0.00000000E+00  0.00000000E+00
  0.00000000E+00  0.00000000E+00  0.00000000E+00
  0.00000000E+00  0.00000000E+00  0.00000000E+00
  0.00000000E+00  0.00000000E+00  0.00000000E+00
  0.00000000E+00  0.00000000E+00  0.00000000E+00
  0.00000000E+00  0.00000000E+00  0.00000000E+00
  0.00000000E+00  0.00000000E+00  0.00000000E+00
  0.00000000E+00  0.00000000E+00  0.00000000E+00
  0.00000000E+00  0.00000000E+00  0.00000000E+00
  0.00000000E+00  0.00000000E+00  0.00000000E+00
  0.00000000E+00  0.00000000E+00  0.00000000E+00
  0.00000000E+00  0.00000000E+00  0.00000000E+00
  0.00000000E+00  0.00000000E+00  0.00000000E+00
  0.00000000E+00  0.00000000E+00  0.00000000E+00
  0.00000000E+00  0.00000000E+00  0.00000000E+00
  0.00000000E+00  0.00000000E+00  0.00000000E+00
  0.00000000E+00  0.00000000E+00  0.00000000E+00
  0.00000000E+00  0.00000000E+00  0.00000000E+00
  0.00000000E+00  0.00000000E+00  0.00000000E+00
  0.00000000E+00  0.00000000E+00  0.00000000E+00
  0.00000000E+00  0.00000000E+00  0.00000000E+00
  0.00000000E+00  0.00000000E+00  0.00000000E+00
  0.00000000E+00  0.00000000E+00  0.00000000E+00
  0.00000000E+00  0.00000000E+00  0.00000000E+00
  0.00000000E+00  0.00000000E+00  0.00000000E+00
  0.00000000E+00  0.00000000E+00  0.00000000E+00
  0.00000000E+00  0.00000000E+00  0.00000000E+00
  0.00000000E+00  0.00000000E+00  0.00000000E+00
  0.00000000E+00  0.00000000E+00  0.00000000E+00
  0.00000000E+00  0.00000000E+00  0.00000000E+00
  0.00000000E+00  0.00000000E+00  0.00000000E+00
  0.00000000E+00  0.00000000E+00  0.00000000E+00
  0.00000000E+00  0.00000000E+00  0.00000000E+00
  0.00000000E+00  0.00000000E+00  0.00000000E+00
  0.00000000E+00  0.00000000E+00  0.00000000E+00
  0.00000000E+00  0.00000000E+00  0.00000000E+00
  0.00000000E+00  0.00000000E+00  0.00000000E+00
  0.00000000E+00  0.00000000E+00  0.00000000E+00
  0.00000000E+00  0.00000000E+00  0.00000000E+00
  0.00000000E+00  0.00000000E+00  0.00000000E+00
  0.00000000E+00  0.00000000E+00  0.00000000E+00
  0.00000000E+00  0.00000000E+00  0.00000000E+00
  0.00000000E+00  0.00000000E+00  0.00000000E+00
  0.00000000E+00  0.00000000E+00  0.00000000E+00
  0.00000000E+00  0.00000000E+00  0.00000000E+00
  0.00000000E+00  0.00000000E+00  0.00000000E+00
  0.00000000E+00  0.00000000E+00  0.00000000E+00
  0.00000000E+00  0.00000000E+00  0.00000000E+00
  0.00000000E+00  0.00000000E+00  0.00000000E+00
  0.00000000E+00  0.00000000E+00  0.00000000E+00
  0.00000000E+00  0.00000000E+00  0.00000000E+00
  0.00000000E+00  0.00000000E+00  0.00000000E+00
  0.00000000E+00  0.00000000E+00  0.00000000E+00
  0.00000000E+00  0.00000000E+00  0.00000000E+00
  0.00000000E+00  0.00000000E+00  0.00000000E+00
  0.00000000E+00  0.00000000E+00  0.00000000E+00
  0.00000000E+00  0.00000000E+00  0.00000000E+00
  0.00000000E+00  0.00000000E+00  0.00000000E+00
  0.00000000E+00  0.00000000E+00  0.00000000E+00
  0.00000000E+00  0.00000000E+00  0.00000000E+00
  0.00000000E+00  0.00000000E+00  0.00000000E+00
  0.00000000E+00  0.00000000E+00  0.00000000E+00
  0.00000000E+00  0.00000000E+00  0.00000000E+00
  0.00000000E+00  0.00000000E+00  0.00000000E+00
  0.00000000E+00  0.00000000E+00  0.00000000E+00
  0.00000000E+00  0.00000000E+00  0.00000000E+00
  0.00000000E+00  0.00000000E+00  0.00000000E+00
  0.00000000E+00  0.00000000E+00  0.00000000E+00
  0.00000000E+00  0.00000000E+00  0.00000000E+00
  0.00000000E+00  0.00000000E+00  0.00000000E+00
  0.00000000E+00  0.00000000E+00  0.00000000E+00
  0.00000000E+00  0.00000000E+00  0.00000000E+00
  0.00000000E+00  0.00000000E+00  0.00000000E+00
  0.00000000E+00  0.00000000E+00  0.00000000E+00
  0.00000000E+00  0.00000000E+00  0.00000000E+00
  0.00000000E+00  0.00000000E+00  0.00000000E+00
  0.00000000E+00  0.00000000E+00  0.00000000E+00
  0.00000000E+00  0.00000000E+00  0.00000000E+00
  0.00000000E+00  0.00000000E+00  0.00000000E+00
  0.00000000E+00  0.00000000E+00  0.00000000E+00
  0.00000000E+00  0.00000000E+00  0.00000000E+00
  0.00000000E+00  0.00000000E+00  0.00000000E+00
  0.00000000E+00  0.00000000E+00  0.00000000E+00
  0.00000000E+00  0.00000000E+00  0.00000000E+00
  0.00000000E+00  0.00000000E+00  0.00000000E+00
  0.00000000E+00  0.00000000E+00  0.00000000E+00
  0.00000000E+00  0.00000000E+00  0.00000000E+00
  0.00000000E+00  0.00000000E+00  0.00000000E+00
