&CONTROL
/
&SYSTEM
   ntyp             = 2
   nat              = 63
   ibrav            = 0
/
&ELECTRONS
/
&IONS
/
&CELL
/

ATOMIC_SPECIES
Cd 112.414 None
Te 127.6 None

K_POINTS gamma

CELL_PARAMETERS angstrom
13.08676800000000 0.00000000000000 0.00000000000000
0.00000000000000 13.08676800000000 0.00000000000000
0.00000000000000 0.00000000000000 13.08676800000000

ATOMIC_POSITIONS angstrom
Cd 0.2052936933 0.2205109577 6.5612600102 
Cd 0.3553059026 6.4874540930 0.1311618230 
Cd -0.0189701912 6.5181677929 6.2570352666 
Cd 6.1796951708 0.2623979357 -0.2390850836 
Cd 6.3936521122 -0.0705098423 6.3047768912 
Cd 6.6170390438 6.7871616780 -0.3530104837 
Cd 6.2838583436 6.8800332033 6.8680083180 
Cd -0.4558335511 3.5713061158 3.1244141346 
Cd -0.1383866466 3.4883477927 9.4875198666 
Cd -0.0990547023 9.2565757916 3.3244344470 
Cd -0.0666252559 9.6258716381 10.0500411859 
Cd 6.5509957445 3.6911705273 3.0562876062 
Cd 6.7586762218 3.3272456174 9.5832095081 
Cd 6.6360757260 9.8497071995 3.7883128703 
Cd 6.6082747313 10.0528258949 9.9353986711 
Cd 3.0288526343 -0.1828111303 3.5476901542 
Cd 3.1098991492 0.0702601671 9.6601980421 
Cd 3.5574730475 6.4424748675 3.2085931359 
Cd 3.4325905045 6.7705044623 9.5012728266 
Cd 9.7117087314 -0.4834176905 3.4040015301 
Cd 10.0022302059 0.1080439952 9.6516807338 
Cd 10.1714269096 6.6241789285 3.1655379298 
Cd 9.3085127617 6.4018087674 9.7533878631 
Cd 3.3994529298 3.4742102051 -0.1808313195 
Cd 3.7387736554 3.4910359408 6.3135534511 
Cd 3.3414555872 9.5849079909 -0.3544370839 
Cd 3.7662073052 9.4368196528 6.4918174678 
Cd 10.1502177203 3.5291627195 -0.1238205694 
Cd 10.0435753234 3.1852362330 6.9917138830 
Cd 10.0242116925 9.9364450730 0.1104867397 
Cd 9.7510717928 9.8455033094 6.4614014274 
Te 1.5541433257 1.9734023807 4.9233741105 
Te 2.1266235285 2.1266235285 10.9601444715 
Te 1.7174543391 8.2820291303 5.4998426799 
Te 1.4773444045 8.0914853904 11.0884702149 
Te 8.2653380643 1.6043581688 4.8425490397 
Te 8.2235256058 1.4452015063 11.0741478414 
Te 8.1546704364 8.4171284306 4.9777313383 
Te 8.0256553870 8.4325657640 11.6792998138 
Te 1.4910276874 4.8183441414 1.9865939846 
Te 1.6638992716 4.7990204335 7.8885361462 
Te 2.1266235285 10.9601444715 2.1266235285 
Te 1.6668981429 11.6722305551 8.4278363781 
Te 8.0376589517 4.8618654142 1.4752211561 
Te 8.0790002588 5.0654924940 7.4357907467 
Te 7.9596934547 11.5680055313 1.4782538461 
Te 8.8231704737 11.9196722252 7.9344010692 
Te 4.7195900981 1.6713004379 2.1131884631 
Te 4.9108364207 1.4911526347 7.7655524265 
Te 5.3144600671 7.9555627306 1.4579927881 
Te 4.9770661164 8.4098758849 8.3701434731 
Te 11.7092924228 1.8306059845 1.2709266515 
Te 11.8438048907 1.6704836593 7.7841269954 
Te 11.7239819196 8.1712888360 1.3776519156 
Te 11.7745596756 8.1926838545 8.2275328558 
Te 5.1085924827 4.9075909233 4.8337724420 
Te 5.0266100925 4.9282115846 11.3880729444 
Te 4.9662022261 11.5870664745 4.8091737486 
Te 5.1264044323 11.1805616712 11.4958783517 
Te 11.5396180648 4.9906961842 5.2762497808 
Te 11.5086458777 5.1651153635 11.4600915357 
Te 11.5595291122 11.8953695735 4.7469231033 
Te 11.0722618437 11.6486366009 11.3780396955 

