Gamma-only KPOINTS from ShakeNBreak
0
Gamma
1 1 1
