-32.5%_Bond__vac_1_Cd[0. 0. 0.]_-dNELECT
   1.0000000000000000     
    13.0867679999999993    0.0000000000000000    0.0000000000000000
     0.0000000000000000   13.0867679999999993    0.0000000000000000
     0.0000000000000000    0.0000000000000000   13.0867679999999993
   Cd   Te
    31    32
Direct
  0.0135750736890726  0.0041893057184545  0.4960588616771143
  0.0136275128079465  0.5044155109232566 -0.0039269001157463
  0.0026106253326445  0.5041086661747290  0.4957099071295482
  0.5142256542770512  0.0042359994642959  0.9959717873074659
  0.4950994605379027  0.0041198990145613  0.4958472654510928
  0.4951576349442965  0.5041929984999746  0.9959170582316745
  0.5036103852885314  0.5041614022485764  0.4959572562657432
  0.9898157267342116  0.2499838739672008  0.2416805585611206
  0.9726064249277054  0.2791696238279818  0.7209850192769165
  0.9726345543806207  0.7292961085545323  0.2710937474633543
  0.9895375081090582  0.7583131842005573  0.7497783299795929
  0.5112243317676967  0.2615677220494217  0.2533525497755086
  0.4998442869810125  0.2533902634022853  0.7466675923224542
  0.4997142726285075  0.7547718414985268  0.2452486404395738
  0.5112125965729245  0.7465349762485599  0.7384975219217905
  0.2573308601103220  0.0124676733402654  0.2331464149008071
  0.2578306784105329 -0.0041660500823458  0.7585873755641979
  0.2517226531589660  0.5011398453336462  0.2411307162509694
  0.2513766409373711  0.5072841141532849  0.7505816428203342
  0.7542798934152393  0.0135070930761897  0.2391651967065886
  0.7540032556998948 -0.0049581501826567  0.7526444645242339
  0.7517632165307480  0.5049119585470389  0.2444015342590462
  0.7516531363209440  0.5034816012995188  0.7473407894904145
  0.2577182949231436  0.2414853892181003  0.0041716960938935
  0.2514361615799198  0.2497885193678500  0.4926791280640954
  0.2572751234765115  0.7671719221582887  0.9873486576247521
  0.2514904049481954  0.7587310765598291  0.4990582645341215
  0.7542243394772384  0.2478004468042927  0.0050614932471012
  0.7514774385758600  0.2525411179545007  0.4968809138607908
  0.7541241443514496  0.7611013440995045 -0.0131405389507522
  0.7514792496947198  0.7559069148734208  0.4950287303944536
  0.1277367569906633  0.1297626982914976  0.3641045722446082
  0.1360448699825462  0.0785981803024161  0.9213818400734201
  0.1299403535931838  0.6289184318599699  0.3710403892019233
  0.1276300430498414  0.6361719775360822  0.8702072232553552
  0.6270740088781577  0.1272266276417681  0.3748130875654999
  0.6309304699165591  0.1323014695122375  0.8680049676853865
  0.6265319853603917  0.6302671879101915  0.3696774247314530
  0.6271443369874858  0.6252498123228735  0.8728854937566801
  0.1278533565733231  0.3723414343389902  0.1213514075560463
  0.1298836157321361  0.3796807221578088  0.6204386166435679
  0.1356716997904914  0.9302625965082512  0.0697831439932469
  0.1278832228846938  0.8786953582283926  0.6278206615836823
  0.6269243697088295  0.3832071054012721  0.1190054479311840
  0.6265279644821818  0.3780958759830054  0.6221285134533837
  0.6308468317636211  0.8762612979094286  0.1240094976744461
  0.6268122285645841  0.8811262850017010  0.6170391071602755
  0.3967461557575274  0.1329497170204549  0.1249074556309030
  0.3706096770088448  0.1271840360026376  0.6258067737075584
  0.3705178068398418  0.6344147307183007  0.1185086745657941
  0.3760062577760238  0.6275625859913404  0.6194586519720399
  0.8843633807356229  0.1207363044163849  0.1121279947100479
  0.8766610167844140  0.1229650241010925  0.6189018636010456
  0.8768512910016864  0.6272869080726757  0.1148195081602669
  0.8754934946661711  0.6279513810663806  0.6194595348360170
  0.3761058324202632  0.3807691580481435  0.3723511880708958
  0.3706643255918479  0.3741735511778433  0.8729933217162197
  0.3704707454567545  0.8812657159561461  0.3658467607339129
  0.3969831133920602  0.8752501170620204  0.8671265832498757
  0.8754877707670176  0.3802138947449378  0.3722163123270104
  0.8768358443014714  0.3815170786402947  0.8770939058175921
  0.8768907103533998  0.8855441612419466  0.3730310053821883
  0.8842899222981431  0.8878463825198726  0.8794333959362389

  0.00000000E+00  0.00000000E+00  0.00000000E+00
  0.00000000E+00  0.00000000E+00  0.00000000E+00
  0.00000000E+00  0.00000000E+00  0.00000000E+00
  0.00000000E+00  0.00000000E+00  0.00000000E+00
  0.00000000E+00  0.00000000E+00  0.00000000E+00
  0.00000000E+00  0.00000000E+00  0.00000000E+00
  0.00000000E+00  0.00000000E+00  0.00000000E+00
  0.00000000E+00  0.00000000E+00  0.00000000E+00
  0.00000000E+00  0.00000000E+00  0.00000000E+00
  0.00000000E+00  0.00000000E+00  0.00000000E+00
  0.00000000E+00  0.00000000E+00  0.00000000E+00
  0.00000000E+00  0.00000000E+00  0.00000000E+00
  0.00000000E+00  0.00000000E+00  0.00000000E+00
  0.00000000E+00  0.00000000E+00  0.00000000E+00
  0.00000000E+00  0.00000000E+00  0.00000000E+00
  0.00000000E+00  0.00000000E+00  0.00000000E+00
  0.00000000E+00  0.00000000E+00  0.00000000E+00
  0.00000000E+00  0.00000000E+00  0.00000000E+00
  0.00000000E+00  0.00000000E+00  0.00000000E+00
  0.00000000E+00  0.00000000E+00  0.00000000E+00
  0.00000000E+00  0.00000000E+00  0.00000000E+00
  0.00000000E+00  0.00000000E+00  0.00000000E+00
  0.00000000E+00  0.00000000E+00  0.00000000E+00
  0.00000000E+00  0.00000000E+00  0.00000000E+00
  0.00000000E+00  0.00000000E+00  0.00000000E+00
  0.00000000E+00  0.00000000E+00  0.00000000E+00
  0.00000000E+00  0.00000000E+00  0.00000000E+00
  0.00000000E+00  0.00000000E+00  0.00000000E+00
  0.00000000E+00  0.00000000E+00  0.00000000E+00
  0.00000000E+00  0.00000000E+00  0.00000000E+00
  0.00000000E+00  0.00000000E+00  0.00000000E+00
  0.00000000E+00  0.00000000E+00  0.00000000E+00
  0.00000000E+00  0.00000000E+00  0.00000000E+00
  0.00000000E+00  0.00000000E+00  0.00000000E+00
  0.00000000E+00  0.00000000E+00  0.00000000E+00
  0.00000000E+00  0.00000000E+00  0.00000000E+00
  0.00000000E+00  0.00000000E+00  0.00000000E+00
  0.00000000E+00  0.00000000E+00  0.00000000E+00
  0.00000000E+00  0.00000000E+00  0.00000000E+00
  0.00000000E+00  0.00000000E+00  0.00000000E+00
  0.00000000E+00  0.00000000E+00  0.00000000E+00
  0.00000000E+00  0.00000000E+00  0.00000000E+00
  0.00000000E+00  0.00000000E+00  0.00000000E+00
  0.00000000E+00  0.00000000E+00  0.00000000E+00
  0.00000000E+00  0.00000000E+00  0.00000000E+00
  0.00000000E+00  0.00000000E+00  0.00000000E+00
  0.00000000E+00  0.00000000E+00  0.00000000E+00
  0.00000000E+00  0.00000000E+00  0.00000000E+00
  0.00000000E+00  0.00000000E+00  0.00000000E+00
  0.00000000E+00  0.00000000E+00  0.00000000E+00
  0.00000000E+00  0.00000000E+00  0.00000000E+00
  0.00000000E+00  0.00000000E+00  0.00000000E+00
  0.00000000E+00  0.00000000E+00  0.00000000E+00
  0.00000000E+00  0.00000000E+00  0.00000000E+00
  0.00000000E+00  0.00000000E+00  0.00000000E+00
  0.00000000E+00  0.00000000E+00  0.00000000E+00
  0.00000000E+00  0.00000000E+00  0.00000000E+00
  0.00000000E+00  0.00000000E+00  0.00000000E+00
  0.00000000E+00  0.00000000E+00  0.00000000E+00
  0.00000000E+00  0.00000000E+00  0.00000000E+00
  0.00000000E+00  0.00000000E+00  0.00000000E+00
  0.00000000E+00  0.00000000E+00  0.00000000E+00
  0.00000000E+00  0.00000000E+00  0.00000000E+00
