60.0%__num_neighbours=1__Vac_O_mult32   
   1.0000000000000000     
     0.0000000000000000   10.7468629999999994    0.0000000000000000
   -10.7468629999999994    0.0000000000000000    0.0000000000000000
     0.0000000000000000    0.0000000000000000    9.7925889999999995
   Sr   Cu   O 
    16    32    31
Direct
  0.0020568866814928  0.2327127423248939  0.2463146920780529
  0.5020192144578993  0.2446260783915784  0.2478361444867850
  0.0017909206615060  0.7578877063628668  0.2463805011406088
  0.5020289504932742  0.7453483032538289  0.2476725878614392
  0.2525260833269599 -0.0051207379757623  0.7461453603495174
  0.7518606536794259 -0.0047494193085483  0.7463271753268389
  0.2550386155130111  0.4948300352920646  0.7456923963400669
  0.7494379869980295  0.4952590051956627  0.7461599215719897
  0.0021303232611476  0.4953588209053909  0.5082447182743710
  0.5021798511243012  0.4951010951404131  0.4964930657627280
  0.0021343684742967 -0.0046533922224880  0.4990027034645712
  0.5022770279993178 -0.0048968184901887  0.4974178184044294
  0.2563877219796947  0.2459226171535905 -0.0042225388562772
  0.7479710077600871  0.2465291855817203 -0.0038593463467321
  0.2563247787817644  0.7437956794890873 -0.0041733406703947
  0.7480138406835265  0.7440756952112733 -0.0040208428508407
  0.2446904264483690  0.3722344495193128  0.3645058240019708
  0.7593657492339765  0.3737934785480099  0.3650862082089409
  0.2518582622516140  0.8691514639462971  0.3724101195609497
  0.7520803559182718  0.8707730682381890  0.3718921347851935
  0.5021832519192637  0.1202130993396250  0.8708536499922902
  0.0020816432842959  0.1194216346106138  0.8737966587587190
  0.5020736884717978  0.6207008440428815  0.8701544594498432
  0.0024639393325259  0.6150836958408017  0.8881179955279918
  0.3791608330086071  0.4947721165407206  0.1233803593892106
  0.8964460056144027  0.4952802364847032  0.0928286394751636
  0.3764092317931373  0.9947430623480557  0.1234246974834022
  0.8770345770265670 -0.0045326688688607  0.1150065174938417
  0.6278922887605296  0.2456297338315553  0.6229229089962190
  0.1282132563243628  0.2452515471334558  0.6190031727743909
  0.6274331330505950  0.7450278257545299  0.6228823756973171
  0.1277715632762098  0.7447086397310124  0.6190135904571608
  0.2446514419398951  0.6169413235445490  0.3639788590231202
  0.7590162062038722  0.6191473674044665  0.3657642771723514
  0.2518799524457823  0.1206471546935877  0.3722479397997869
  0.7522937093758448  0.1220658967172612  0.3724946488505805
  0.5022498740982072  0.3695034718128646  0.8705719628155382
  0.0024628167695985  0.3756363224563857  0.8880481215992615
  0.5021010323998800  0.8699462817553008  0.8709045920178869
  0.0019748056122522  0.8715354358282721  0.8744212339375311
  0.1104818258598071  0.4950497185994708  0.0952030025305743
  0.6267329388952294  0.4951756720225442  0.1245642969353570
  0.1257717271963590 -0.0049751061002905  0.1143243773056000
  0.6265083417342360 -0.0048381141532970  0.1234619387329549
  0.3779166255965963  0.2450709133436272  0.6229916123331117
  0.8775637594491672  0.2456209475577664  0.6196409062295098
  0.3774785421374727  0.7445781888439927  0.6226747915540257
  0.8770162602661606  0.7450514909225315  0.6191864420759917
  0.5024758726640342  0.4949170805162255  0.2508676616372590
  0.0016401015075189 -0.0046960476091225  0.2427973722075879
  0.5014320241853359  0.9948725608436780  0.2487236681150333
  0.2509452953054758  0.2451548651751871  0.7465071474948540
  0.7545708473844800  0.2461353111376996  0.7467978814603723
  0.2506136024510187  0.7438002639729622  0.7463272438205880
  0.7542326492857528  0.7447700342762650  0.7466415013330070
  0.0020511857846257  0.2422500368098304  0.0009658619235659
  0.5022164376204191  0.2447737822173663 -0.0026522772717908
  0.0018266176549791  0.7484226964134847  0.0011348212503683
  0.5020097738729684  0.7452460756297543 -0.0028351106417898
  0.2513002822779634 -0.0050335093808708  0.4967726525705498
  0.7526037909852715 -0.0038288151399596  0.4967088743357480
  0.2444017716777347  0.4948016142646223  0.4925579084291071
  0.7593640794859238  0.4961625040556872  0.4933642973184559
  0.0026065895938700  0.2482724262768528  0.4942923562846392
  0.5028353172483522  0.2463120071260745  0.4971808713393521
  0.0022991438945296  0.7426053944285756  0.4941225816243497
  0.5024572995437995  0.7439332176574625  0.4969913447461117
  0.2543219141485434 -0.0053021311895078 -0.0054534857093474
  0.7488624132008819 -0.0040524696622924 -0.0051292450058404
  0.2592150028669585  0.4947230855964364 -0.0061905059410612
  0.7461651513346361  0.4957257548870665  0.9944185336506517
  0.0025147697580088  0.4953792797786774  0.7546406412636877
  0.5021561546322638  0.4949597958736790  0.7449137313291022
  0.0019156406147839  0.9952377227325832  0.7466890885341656
  0.5019157391444050 -0.0049137478173923  0.7456933919568057
  0.2491142231499216  0.2439720649238022  0.2445660656979037
  0.7557235236215694  0.2455286857374577  0.2449993482377944
  0.2490558350641811  0.7456681219923551  0.2446822935049645
  0.7550256524691944  0.7467865498800446  0.2448891532008797

  0.00000000E+00  0.00000000E+00  0.00000000E+00
  0.00000000E+00  0.00000000E+00  0.00000000E+00
  0.00000000E+00  0.00000000E+00  0.00000000E+00
  0.00000000E+00  0.00000000E+00  0.00000000E+00
  0.00000000E+00  0.00000000E+00  0.00000000E+00
  0.00000000E+00  0.00000000E+00  0.00000000E+00
  0.00000000E+00  0.00000000E+00  0.00000000E+00
  0.00000000E+00  0.00000000E+00  0.00000000E+00
  0.00000000E+00  0.00000000E+00  0.00000000E+00
  0.00000000E+00  0.00000000E+00  0.00000000E+00
  0.00000000E+00  0.00000000E+00  0.00000000E+00
  0.00000000E+00  0.00000000E+00  0.00000000E+00
  0.00000000E+00  0.00000000E+00  0.00000000E+00
  0.00000000E+00  0.00000000E+00  0.00000000E+00
  0.00000000E+00  0.00000000E+00  0.00000000E+00
  0.00000000E+00  0.00000000E+00  0.00000000E+00
  0.00000000E+00  0.00000000E+00  0.00000000E+00
  0.00000000E+00  0.00000000E+00  0.00000000E+00
  0.00000000E+00  0.00000000E+00  0.00000000E+00
  0.00000000E+00  0.00000000E+00  0.00000000E+00
  0.00000000E+00  0.00000000E+00  0.00000000E+00
  0.00000000E+00  0.00000000E+00  0.00000000E+00
  0.00000000E+00  0.00000000E+00  0.00000000E+00
  0.00000000E+00  0.00000000E+00  0.00000000E+00
  0.00000000E+00  0.00000000E+00  0.00000000E+00
  0.00000000E+00  0.00000000E+00  0.00000000E+00
  0.00000000E+00  0.00000000E+00  0.00000000E+00
  0.00000000E+00  0.00000000E+00  0.00000000E+00
  0.00000000E+00  0.00000000E+00  0.00000000E+00
  0.00000000E+00  0.00000000E+00  0.00000000E+00
  0.00000000E+00  0.00000000E+00  0.00000000E+00
  0.00000000E+00  0.00000000E+00  0.00000000E+00
  0.00000000E+00  0.00000000E+00  0.00000000E+00
  0.00000000E+00  0.00000000E+00  0.00000000E+00
  0.00000000E+00  0.00000000E+00  0.00000000E+00
  0.00000000E+00  0.00000000E+00  0.00000000E+00
  0.00000000E+00  0.00000000E+00  0.00000000E+00
  0.00000000E+00  0.00000000E+00  0.00000000E+00
  0.00000000E+00  0.00000000E+00  0.00000000E+00
  0.00000000E+00  0.00000000E+00  0.00000000E+00
  0.00000000E+00  0.00000000E+00  0.00000000E+00
  0.00000000E+00  0.00000000E+00  0.00000000E+00
  0.00000000E+00  0.00000000E+00  0.00000000E+00
  0.00000000E+00  0.00000000E+00  0.00000000E+00
  0.00000000E+00  0.00000000E+00  0.00000000E+00
  0.00000000E+00  0.00000000E+00  0.00000000E+00
  0.00000000E+00  0.00000000E+00  0.00000000E+00
  0.00000000E+00  0.00000000E+00  0.00000000E+00
  0.00000000E+00  0.00000000E+00  0.00000000E+00
  0.00000000E+00  0.00000000E+00  0.00000000E+00
  0.00000000E+00  0.00000000E+00  0.00000000E+00
  0.00000000E+00  0.00000000E+00  0.00000000E+00
  0.00000000E+00  0.00000000E+00  0.00000000E+00
  0.00000000E+00  0.00000000E+00  0.00000000E+00
  0.00000000E+00  0.00000000E+00  0.00000000E+00
  0.00000000E+00  0.00000000E+00  0.00000000E+00
  0.00000000E+00  0.00000000E+00  0.00000000E+00
  0.00000000E+00  0.00000000E+00  0.00000000E+00
  0.00000000E+00  0.00000000E+00  0.00000000E+00
  0.00000000E+00  0.00000000E+00  0.00000000E+00
  0.00000000E+00  0.00000000E+00  0.00000000E+00
  0.00000000E+00  0.00000000E+00  0.00000000E+00
  0.00000000E+00  0.00000000E+00  0.00000000E+00
  0.00000000E+00  0.00000000E+00  0.00000000E+00
  0.00000000E+00  0.00000000E+00  0.00000000E+00
  0.00000000E+00  0.00000000E+00  0.00000000E+00
  0.00000000E+00  0.00000000E+00  0.00000000E+00
  0.00000000E+00  0.00000000E+00  0.00000000E+00
  0.00000000E+00  0.00000000E+00  0.00000000E+00
  0.00000000E+00  0.00000000E+00  0.00000000E+00
  0.00000000E+00  0.00000000E+00  0.00000000E+00
  0.00000000E+00  0.00000000E+00  0.00000000E+00
  0.00000000E+00  0.00000000E+00  0.00000000E+00
  0.00000000E+00  0.00000000E+00  0.00000000E+00
  0.00000000E+00  0.00000000E+00  0.00000000E+00
  0.00000000E+00  0.00000000E+00  0.00000000E+00
  0.00000000E+00  0.00000000E+00  0.00000000E+00
  0.00000000E+00  0.00000000E+00  0.00000000E+00
  0.00000000E+00  0.00000000E+00  0.00000000E+00
