-52.5%_Bond__vac_1_Cd[0. 0. 0.]_-dNELECT
   1.0000000000000000     
    13.0867679999999993    0.0000000000000000    0.0000000000000000
     0.0000000000000000   13.0867679999999993    0.0000000000000000
     0.0000000000000000    0.0000000000000000   13.0867679999999993
   Cd   Te
    31    32
Direct
  0.0018648914761413  0.0043944825466475  0.4958482349088579
  0.0018214411984481  0.5044780806527340 -0.0039952303499035
  0.0015351273626967  0.5041929727229219  0.4958471903623911
  0.5019435924845479  0.0041531439801410  0.9961127550507278
  0.5018015530552721  0.0039316685395424  0.4958770738832677
  0.5017372349814054  0.5039250910365204  0.9958877088958574
  0.5015054222388068  0.5042414567643602  0.4959832269164620
  0.9947459412191162  0.2501702695450415  0.2414241183747836
  0.0088928100550860  0.2499915656072258  0.7503728354505370
  0.0091486099787949  0.7587289733168484  0.2416494641014019
  0.9944549962753598  0.7586213073529214  0.7499269147326245
  0.5008696632690870  0.2523159938841708  0.2441979751768503
  0.5029093778355612  0.2520773911473608  0.7476981306564264
  0.5031071303513176  0.7560282844588521  0.2437869618075021
  0.5008787449409766  0.7560997177348605  0.7478493267737116
  0.2452218259628488  0.0001628489403481  0.2414856253041284
  0.2452091407045653  0.0083862754583988  0.7502588271252445
  0.2518828065356282  0.5042693927675559  0.2449315072923061
  0.2516921021584572  0.5043170508573536  0.7467639254954609
  0.7588898113033604  0.0082096163347211  0.2415330666987944
  0.7587599892894262 -0.0000126497749771  0.7501864690989068
  0.7518075837172976  0.5043913758828399  0.2449210621053690
  0.7515102261230717  0.5039486840139744  0.7468893042069840
  0.2452987856518290  0.2501052929649445  0.9918846600411690
  0.2516446152511672  0.2531456764556427  0.4955957132773724
  0.2450666638872908  0.7584754017774011  0.9996592261985497
  0.2517794982477409  0.7554612078003807  0.4961329138316944
  0.7584458487847332  0.2500537063742495  0.9996775913557027
  0.7515934536684962  0.2529033033259442  0.4961501054226246
  0.7587628045055501  0.7583446496919864 -0.0083378015004915
  0.7516717108446634  0.7551959579887567  0.4956085207512165
  0.1263098358142972  0.1298556711594597  0.3697542420525839
  0.1172548134650294  0.1206238740119145  0.8798847104300684
  0.1275224258186703  0.6293507257512966  0.3710211834413797
  0.1262438070561976  0.6301910509246744  0.8701312250919093
  0.6272634459659558  0.1281129557306451  0.3693004781498571
  0.6294043595430212  0.1280789857932502  0.8719002233901494
  0.6261209145263791  0.6295924984842396  0.3704221743235637
  0.6271458230858032  0.6306624091715615  0.8718899007077530
  0.1264648413402760  0.3785401022156697  0.1214820257593875
  0.1273923961705933  0.3791424296706759  0.6209173197597803
  0.1173580092730595  0.8880785716163045  0.1119979092501320
  0.1263210167955699  0.8788362657642456  0.6218534234747247
  0.6272602268719398  0.3776546254424815  0.1201271863693231
  0.6260436461392441  0.3786707284275930  0.6213328656141843
  0.6297314387618129  0.8802029879584058  0.1198316562585728
  0.6272680589959794  0.8800385132087157  0.6224650337085351
  0.3744438733710641  0.1282976346176679  0.1199754057310084
  0.3763026539850422  0.1283571175444110  0.6221941193907342
  0.3763754007599476  0.6307756576853761  0.1199268449705258
  0.3772675464312159  0.6298544464654877  0.6214982258766248
  0.8865119170886543  0.1206211425795207  0.1120264513984297
  0.8772723753316339  0.1298450183166892  0.6219846287604440
  0.8772964694447358  0.6302864290882464  0.1217576236150555
  0.8757176726383207  0.6291933232122939  0.6209070764175013
  0.3772283543329954  0.3787519817426616  0.3704221588051719
  0.3763710937316036  0.3777262485787801  0.8714881037362743
  0.3764217759860636  0.8799246445487814  0.3692095544491376
  0.3744119044861972  0.8803317988713600  0.8720113337405854
  0.8758102595831685  0.3789397192291462  0.3709151934101269
  0.8771639674234054  0.3785134142416232  0.8703860607554790
  0.8773380827820370  0.8786518869121172  0.3700530195758357
  0.8866031896413620  0.8880329508850334  0.8798252381386479

  0.00000000E+00  0.00000000E+00  0.00000000E+00
  0.00000000E+00  0.00000000E+00  0.00000000E+00
  0.00000000E+00  0.00000000E+00  0.00000000E+00
  0.00000000E+00  0.00000000E+00  0.00000000E+00
  0.00000000E+00  0.00000000E+00  0.00000000E+00
  0.00000000E+00  0.00000000E+00  0.00000000E+00
  0.00000000E+00  0.00000000E+00  0.00000000E+00
  0.00000000E+00  0.00000000E+00  0.00000000E+00
  0.00000000E+00  0.00000000E+00  0.00000000E+00
  0.00000000E+00  0.00000000E+00  0.00000000E+00
  0.00000000E+00  0.00000000E+00  0.00000000E+00
  0.00000000E+00  0.00000000E+00  0.00000000E+00
  0.00000000E+00  0.00000000E+00  0.00000000E+00
  0.00000000E+00  0.00000000E+00  0.00000000E+00
  0.00000000E+00  0.00000000E+00  0.00000000E+00
  0.00000000E+00  0.00000000E+00  0.00000000E+00
  0.00000000E+00  0.00000000E+00  0.00000000E+00
  0.00000000E+00  0.00000000E+00  0.00000000E+00
  0.00000000E+00  0.00000000E+00  0.00000000E+00
  0.00000000E+00  0.00000000E+00  0.00000000E+00
  0.00000000E+00  0.00000000E+00  0.00000000E+00
  0.00000000E+00  0.00000000E+00  0.00000000E+00
  0.00000000E+00  0.00000000E+00  0.00000000E+00
  0.00000000E+00  0.00000000E+00  0.00000000E+00
  0.00000000E+00  0.00000000E+00  0.00000000E+00
  0.00000000E+00  0.00000000E+00  0.00000000E+00
  0.00000000E+00  0.00000000E+00  0.00000000E+00
  0.00000000E+00  0.00000000E+00  0.00000000E+00
  0.00000000E+00  0.00000000E+00  0.00000000E+00
  0.00000000E+00  0.00000000E+00  0.00000000E+00
  0.00000000E+00  0.00000000E+00  0.00000000E+00
  0.00000000E+00  0.00000000E+00  0.00000000E+00
  0.00000000E+00  0.00000000E+00  0.00000000E+00
  0.00000000E+00  0.00000000E+00  0.00000000E+00
  0.00000000E+00  0.00000000E+00  0.00000000E+00
  0.00000000E+00  0.00000000E+00  0.00000000E+00
  0.00000000E+00  0.00000000E+00  0.00000000E+00
  0.00000000E+00  0.00000000E+00  0.00000000E+00
  0.00000000E+00  0.00000000E+00  0.00000000E+00
  0.00000000E+00  0.00000000E+00  0.00000000E+00
  0.00000000E+00  0.00000000E+00  0.00000000E+00
  0.00000000E+00  0.00000000E+00  0.00000000E+00
  0.00000000E+00  0.00000000E+00  0.00000000E+00
  0.00000000E+00  0.00000000E+00  0.00000000E+00
  0.00000000E+00  0.00000000E+00  0.00000000E+00
  0.00000000E+00  0.00000000E+00  0.00000000E+00
  0.00000000E+00  0.00000000E+00  0.00000000E+00
  0.00000000E+00  0.00000000E+00  0.00000000E+00
  0.00000000E+00  0.00000000E+00  0.00000000E+00
  0.00000000E+00  0.00000000E+00  0.00000000E+00
  0.00000000E+00  0.00000000E+00  0.00000000E+00
  0.00000000E+00  0.00000000E+00  0.00000000E+00
  0.00000000E+00  0.00000000E+00  0.00000000E+00
  0.00000000E+00  0.00000000E+00  0.00000000E+00
  0.00000000E+00  0.00000000E+00  0.00000000E+00
  0.00000000E+00  0.00000000E+00  0.00000000E+00
  0.00000000E+00  0.00000000E+00  0.00000000E+00
  0.00000000E+00  0.00000000E+00  0.00000000E+00
  0.00000000E+00  0.00000000E+00  0.00000000E+00
  0.00000000E+00  0.00000000E+00  0.00000000E+00
  0.00000000E+00  0.00000000E+00  0.00000000E+00
  0.00000000E+00  0.00000000E+00  0.00000000E+00
  0.00000000E+00  0.00000000E+00  0.00000000E+00
