20.0%_BDM_Distortion_vac_1_Cd[0. 0. 0.]_
   1.00000000000000     
    13.0867679999999993    0.0000000000000000    0.0000000000000000
     0.0000000000000000   13.0867679999999993    0.0000000000000000
     0.0000000000000000    0.0000000000000000   13.0867679999999993
   Cd   Te
    31    32
Direct
  0.0023828600232891  0.9974823615317863  0.4988288362034800
  0.0024288121733595  0.4976828074954606 -0.0010853776967065
  0.0018087535977289  0.4972638906657667  0.4998333331087351
  0.5023394438296221  0.9974026043611395 -0.0010506982108213
  0.5022782391499426  0.9974054732948880  0.4987357694581072
  0.5015461807374949  0.4970066776604383 -0.0007609090928159
  0.5023264590632295  0.4976400558289584  0.4987402208365765
  0.9947501059324646  0.2433248821987390  0.2441367123607213
  0.0072580809027263  0.2422742186475338  0.7564671554919746
  0.0057724368766645  0.7519029473036196  0.2437812987732837
  0.9959232202151937  0.7533615163327416  0.7560312354778574
  0.5006791070935172  0.2462005429849454  0.2489893688916472
  0.5017137760594274  0.2459754005995959  0.7505414277743782
  0.5021890720831943  0.7488299331269533  0.2478624406822149
  0.5021390644215348  0.7485221982614613  0.7492684541395335
  0.2464779695991940 -0.0077751550860962  0.2445053489250329
  0.2464878292736274  0.0034480573348485  0.7553830344949494
  0.2503664640019655  0.4971669798659212  0.2482645579546773
  0.2506676653763315  0.4967307708182671  0.7506125611290394
  0.7570687598306509  0.0050992480189629  0.2437403064860741
  0.7573036220943180  0.9929555348465102  0.7559584299700853
  0.7523120582886242  0.4974977579963811  0.2488745483068447
  0.7530110306146049  0.4976221326791325  0.7504112742184248
  0.2462975555233000  0.2420551686338168 -0.0059023741906343
  0.2506523985110326  0.2462232424502361  0.4990557322758979
  0.2473580051146535  0.7528751470935910  0.0050677438281391
  0.2502640491873966  0.7476553352777811  0.5011507583031063
  0.7571746904327272  0.2428766793343682  0.0073678409014297
  0.7530343507527117  0.2465735494160875  0.5018549494007852
  0.7562366025135466  0.7528033343538049 -0.0066262255302194
  0.7537540903350627  0.7493340180998068  0.4989028349177251
  0.1261227019284668  0.1230003759120668  0.3723704999872925
  0.1181370952781546  0.1131110541452458  0.8845533911475369
  0.1260212240904088  0.6230170031575036  0.3740653144487708
  0.1273012603079243  0.6240065825277731  0.8741801447211645
  0.6278724060906693  0.1232298090754440  0.3746439963695432
  0.6287733434199222  0.1232270229945052  0.8750948645093630
  0.6273690806214322  0.6236248852921585  0.3742903983836215
  0.6266082057419070  0.6227434459434814  0.8746677839934254
  0.1261683178358842  0.3712105387998042  0.1246771958081350
  0.1259956619598615  0.3711763955114412  0.6251136742438513
  0.1185994908009524  0.8800072822135193  0.1161474903115602
  0.1261326718162543  0.8728443166872120  0.6261415074520039
  0.6262276977955075  0.3719243885670843  0.1249008485399654
  0.6263472278846224  0.3724347189671695  0.6251288708407565
  0.6284781335494287  0.8734666525930213  0.1248276415884428
  0.6284862354990692  0.8735752586495600  0.6249075595395434
  0.3755889347503711  0.1215729774540426  0.1246124229807886
  0.3761759860870320  0.1214942414223577  0.6246630667264876
  0.3763015009888536  0.6226354295705521  0.1240637378856596
  0.3766470474466183  0.6216648216732279  0.6248194005618305
  0.8865757637560985  0.1137150803115970  0.1152525128650268
  0.8780280763382107  0.1219121394492000  0.6265087966168068
  0.8761403724941140  0.6228821404619552  0.1239590303568214
  0.8777163626221256  0.6237217070624705  0.6250503131375372
  0.3762102004363684  0.3724755059027824  0.3744057945338912
  0.3760384135991627  0.3712767235957705  0.8750067412474974
  0.3756791343529665  0.8720651425424668  0.3746190749349273
  0.3760457093548127  0.8725751735874220  0.8739640370214928
  0.8762854638123553  0.3719437180966221  0.3751616640793837
  0.8766878390883095  0.3711829241175313  0.8750682047804565
  0.8768091087881401  0.8736991093232895  0.3722129966111353
  0.8854775778548358  0.8814731229642802  0.8846644341857399
 
  0.00000000E+00  0.00000000E+00  0.00000000E+00
  0.00000000E+00  0.00000000E+00  0.00000000E+00
  0.00000000E+00  0.00000000E+00  0.00000000E+00
  0.00000000E+00  0.00000000E+00  0.00000000E+00
  0.00000000E+00  0.00000000E+00  0.00000000E+00
  0.00000000E+00  0.00000000E+00  0.00000000E+00
  0.00000000E+00  0.00000000E+00  0.00000000E+00
  0.00000000E+00  0.00000000E+00  0.00000000E+00
  0.00000000E+00  0.00000000E+00  0.00000000E+00
  0.00000000E+00  0.00000000E+00  0.00000000E+00
  0.00000000E+00  0.00000000E+00  0.00000000E+00
  0.00000000E+00  0.00000000E+00  0.00000000E+00
  0.00000000E+00  0.00000000E+00  0.00000000E+00
  0.00000000E+00  0.00000000E+00  0.00000000E+00
  0.00000000E+00  0.00000000E+00  0.00000000E+00
  0.00000000E+00  0.00000000E+00  0.00000000E+00
  0.00000000E+00  0.00000000E+00  0.00000000E+00
  0.00000000E+00  0.00000000E+00  0.00000000E+00
  0.00000000E+00  0.00000000E+00  0.00000000E+00
  0.00000000E+00  0.00000000E+00  0.00000000E+00
  0.00000000E+00  0.00000000E+00  0.00000000E+00
  0.00000000E+00  0.00000000E+00  0.00000000E+00
  0.00000000E+00  0.00000000E+00  0.00000000E+00
  0.00000000E+00  0.00000000E+00  0.00000000E+00
  0.00000000E+00  0.00000000E+00  0.00000000E+00
  0.00000000E+00  0.00000000E+00  0.00000000E+00
  0.00000000E+00  0.00000000E+00  0.00000000E+00
  0.00000000E+00  0.00000000E+00  0.00000000E+00
  0.00000000E+00  0.00000000E+00  0.00000000E+00
  0.00000000E+00  0.00000000E+00  0.00000000E+00
  0.00000000E+00  0.00000000E+00  0.00000000E+00
  0.00000000E+00  0.00000000E+00  0.00000000E+00
  0.00000000E+00  0.00000000E+00  0.00000000E+00
  0.00000000E+00  0.00000000E+00  0.00000000E+00
  0.00000000E+00  0.00000000E+00  0.00000000E+00
  0.00000000E+00  0.00000000E+00  0.00000000E+00
  0.00000000E+00  0.00000000E+00  0.00000000E+00
  0.00000000E+00  0.00000000E+00  0.00000000E+00
  0.00000000E+00  0.00000000E+00  0.00000000E+00
  0.00000000E+00  0.00000000E+00  0.00000000E+00
  0.00000000E+00  0.00000000E+00  0.00000000E+00
  0.00000000E+00  0.00000000E+00  0.00000000E+00
  0.00000000E+00  0.00000000E+00  0.00000000E+00
  0.00000000E+00  0.00000000E+00  0.00000000E+00
  0.00000000E+00  0.00000000E+00  0.00000000E+00
  0.00000000E+00  0.00000000E+00  0.00000000E+00
  0.00000000E+00  0.00000000E+00  0.00000000E+00
  0.00000000E+00  0.00000000E+00  0.00000000E+00
  0.00000000E+00  0.00000000E+00  0.00000000E+00
  0.00000000E+00  0.00000000E+00  0.00000000E+00
  0.00000000E+00  0.00000000E+00  0.00000000E+00
  0.00000000E+00  0.00000000E+00  0.00000000E+00
  0.00000000E+00  0.00000000E+00  0.00000000E+00
  0.00000000E+00  0.00000000E+00  0.00000000E+00
  0.00000000E+00  0.00000000E+00  0.00000000E+00
  0.00000000E+00  0.00000000E+00  0.00000000E+00
  0.00000000E+00  0.00000000E+00  0.00000000E+00
  0.00000000E+00  0.00000000E+00  0.00000000E+00
  0.00000000E+00  0.00000000E+00  0.00000000E+00
  0.00000000E+00  0.00000000E+00  0.00000000E+00
  0.00000000E+00  0.00000000E+00  0.00000000E+00
  0.00000000E+00  0.00000000E+00  0.00000000E+00
  0.00000000E+00  0.00000000E+00  0.00000000E+00
