60.0%_BDM_Distortion_vac_1_Cd[0. 0. 0.]_
   1.00000000000000     
    13.0867679999999993    0.0000000000000000    0.0000000000000000
     0.0000000000000000   13.0867679999999993    0.0000000000000000
     0.0000000000000000    0.0000000000000000   13.0867679999999993
   Cd   Te
    31    32
Direct
  0.0000889615470129  0.9977527266208838  0.5018316675506662
  0.0018952612795106  0.4978362229939154  0.0015719474871232
  0.0015729771208079  0.4974477004525171  0.5014439635410507
  0.5016898579064919  0.9981578755140588  0.0022354586519712
  0.5016886438673022  0.9975770132169816  0.5021266061463434
  0.5012032414419081  0.4973158896617416  0.0016118574530338
  0.5013181372845714  0.4975325789603905  0.5020799185886897
  0.9994770679625659  0.2431513797902106  0.2468462765797784
  0.0087181187995141  0.2427604251895390  0.7559994033922973
  0.0092007371010612  0.7531909183716566  0.2459207546174879
  0.9948144834229736  0.7542287265447438  0.7573914215581481
  0.5006974383586833  0.2456939413159420  0.2495523856692216
  0.5029041806428298  0.2468029034661037  0.7525795354719187
  0.5014875716082264  0.7478557092745123  0.2514003824618669
  0.5012160482396874  0.7491237848392140  0.7533363437457328
  0.2464664331404225  0.9907411201462223  0.2461409490222107
  0.2459530368120821  0.0039074096401888  0.7567678230073094
  0.2511819602399238  0.4975071364957409  0.2511395640932921
  0.2507067689382323  0.4978856253738326  0.7524844491440879
  0.7556885523244755 -0.0004563447280579  0.2469120536158783
  0.7573045055004045  0.9902153339772830  0.7559282664720132
  0.7534782806875689  0.4985209399494279  0.2487863194768088
  0.7522057198934941  0.4981024653536956  0.7527963542347781
  0.2458165744069078  0.2424952732945997  0.9942285062668923
  0.2511575788309389  0.2462593929451216  0.5004411348036408
  0.2455811492125746  0.7537765928144222  0.0067605802696302
  0.2506738941687121  0.7489367641612715  0.5031287244535581
  0.7565313322807499  0.2430659156696648  0.0033831998677142
  0.7525782567669976  0.2466287832907604  0.5019147481853736
  0.7572107946467659  0.7533716604482962  0.9946542598632605
  0.7521429491455677  0.7472356619379480  0.5007356100886958
  0.1262119507336963  0.1219083733355931  0.3758585049517162
  0.1153734015046856  0.1144029435184953  0.8866637030628203
  0.1261250521668385  0.6238761525839822  0.3771501256930676
  0.1255805373304772  0.6255805258941290  0.8768519048919159
  0.6271285298599245  0.1224155398472824  0.3756815602959709
  0.6278658651877073  0.1219949214611547  0.8764668500252056
  0.6261945277548254  0.6219739447629794  0.3761589644693244
  0.6261946677590845  0.6237543528584757  0.8779797740928544
  0.1267655850672814  0.3721735366305693  0.1264136757042172
  0.1264702424511951  0.3725587705672057  0.6264943492516623
  0.1157392950545747  0.8842471797553029  0.1176174623886719
  0.1250208147623370  0.8743439836377340  0.6290651595584767
  0.6272550376091348  0.3714449134157226  0.1260241726506563
  0.6265501924034783  0.3733282598079795  0.6270732428467867
  0.6267555300115606  0.8722949910470617  0.1265177645676769
  0.6264928534326564  0.8727036046254115  0.6267531170180148
  0.3739969658576500  0.1227713764893628  0.1260853863736923
  0.3759213323280929  0.1234230197099317  0.6278318063645519
  0.3750537335179481  0.6242747328575589  0.1262037663083116
  0.3761685080849605  0.6237567228614649  0.6279092191303479
  0.8837236143686468  0.1153130999230062  0.1195673384506816
  0.8760343599860615  0.1234147574394140  0.6284406915631034
  0.8772253605927570  0.6252161524224394  0.1259767692724050
  0.8763482025050486  0.6238607398372465  0.6278416904812466
  0.3766518016025456  0.3725094336429521  0.3764650309854141
  0.3760478401284749  0.3724421628153536  0.8767880538776188
  0.3758676220845625  0.8736604032454621  0.3772249438880468
  0.3740411108439773  0.8745050037631680  0.8776326983315718
  0.8762778922303039  0.3718910487459112  0.3751453526204361
  0.8768141787209958  0.3720704991969231  0.8762006451683192
  0.8763121943605279  0.8720753744374143  0.3754724328901129
  0.8851916861189839  0.8844989518805038  0.8879973770446217
 
  0.00000000E+00  0.00000000E+00  0.00000000E+00
  0.00000000E+00  0.00000000E+00  0.00000000E+00
  0.00000000E+00  0.00000000E+00  0.00000000E+00
  0.00000000E+00  0.00000000E+00  0.00000000E+00
  0.00000000E+00  0.00000000E+00  0.00000000E+00
  0.00000000E+00  0.00000000E+00  0.00000000E+00
  0.00000000E+00  0.00000000E+00  0.00000000E+00
  0.00000000E+00  0.00000000E+00  0.00000000E+00
  0.00000000E+00  0.00000000E+00  0.00000000E+00
  0.00000000E+00  0.00000000E+00  0.00000000E+00
  0.00000000E+00  0.00000000E+00  0.00000000E+00
  0.00000000E+00  0.00000000E+00  0.00000000E+00
  0.00000000E+00  0.00000000E+00  0.00000000E+00
  0.00000000E+00  0.00000000E+00  0.00000000E+00
  0.00000000E+00  0.00000000E+00  0.00000000E+00
  0.00000000E+00  0.00000000E+00  0.00000000E+00
  0.00000000E+00  0.00000000E+00  0.00000000E+00
  0.00000000E+00  0.00000000E+00  0.00000000E+00
  0.00000000E+00  0.00000000E+00  0.00000000E+00
  0.00000000E+00  0.00000000E+00  0.00000000E+00
  0.00000000E+00  0.00000000E+00  0.00000000E+00
  0.00000000E+00  0.00000000E+00  0.00000000E+00
  0.00000000E+00  0.00000000E+00  0.00000000E+00
  0.00000000E+00  0.00000000E+00  0.00000000E+00
  0.00000000E+00  0.00000000E+00  0.00000000E+00
  0.00000000E+00  0.00000000E+00  0.00000000E+00
  0.00000000E+00  0.00000000E+00  0.00000000E+00
  0.00000000E+00  0.00000000E+00  0.00000000E+00
  0.00000000E+00  0.00000000E+00  0.00000000E+00
  0.00000000E+00  0.00000000E+00  0.00000000E+00
  0.00000000E+00  0.00000000E+00  0.00000000E+00
  0.00000000E+00  0.00000000E+00  0.00000000E+00
  0.00000000E+00  0.00000000E+00  0.00000000E+00
  0.00000000E+00  0.00000000E+00  0.00000000E+00
  0.00000000E+00  0.00000000E+00  0.00000000E+00
  0.00000000E+00  0.00000000E+00  0.00000000E+00
  0.00000000E+00  0.00000000E+00  0.00000000E+00
  0.00000000E+00  0.00000000E+00  0.00000000E+00
  0.00000000E+00  0.00000000E+00  0.00000000E+00
  0.00000000E+00  0.00000000E+00  0.00000000E+00
  0.00000000E+00  0.00000000E+00  0.00000000E+00
  0.00000000E+00  0.00000000E+00  0.00000000E+00
  0.00000000E+00  0.00000000E+00  0.00000000E+00
  0.00000000E+00  0.00000000E+00  0.00000000E+00
  0.00000000E+00  0.00000000E+00  0.00000000E+00
  0.00000000E+00  0.00000000E+00  0.00000000E+00
  0.00000000E+00  0.00000000E+00  0.00000000E+00
  0.00000000E+00  0.00000000E+00  0.00000000E+00
  0.00000000E+00  0.00000000E+00  0.00000000E+00
  0.00000000E+00  0.00000000E+00  0.00000000E+00
  0.00000000E+00  0.00000000E+00  0.00000000E+00
  0.00000000E+00  0.00000000E+00  0.00000000E+00
  0.00000000E+00  0.00000000E+00  0.00000000E+00
  0.00000000E+00  0.00000000E+00  0.00000000E+00
  0.00000000E+00  0.00000000E+00  0.00000000E+00
  0.00000000E+00  0.00000000E+00  0.00000000E+00
  0.00000000E+00  0.00000000E+00  0.00000000E+00
  0.00000000E+00  0.00000000E+00  0.00000000E+00
  0.00000000E+00  0.00000000E+00  0.00000000E+00
  0.00000000E+00  0.00000000E+00  0.00000000E+00
  0.00000000E+00  0.00000000E+00  0.00000000E+00
  0.00000000E+00  0.00000000E+00  0.00000000E+00
  0.00000000E+00  0.00000000E+00  0.00000000E+00
