-30.0%__num_neighbours=1__Vac_O_mult32  
   1.0000000000000000     
     0.0000000000000000   10.7468629999999994    0.0000000000000000
   -10.7468629999999994    0.0000000000000000    0.0000000000000000
     0.0000000000000000    0.0000000000000000    9.7925889999999995
   Sr   Cu   O 
    16    32    31
Direct
  0.0090649465118498  0.2326412451211081  0.2467799322050543
  0.5051853726940068  0.2450605279247022  0.2475830358317042
  0.0088075906820657  0.7589156361460878  0.2467019312955655
  0.5051988179824410  0.7462229341511742  0.2477048631240832
  0.2580733505127638 -0.0041501532144905  0.7494998167475398
  0.7559574458472925  0.9957052859387464  0.7482895205779327
  0.2579564229423166  0.4959742645304429  0.7512121765957350
  0.7538582062601279  0.4956895912465147  0.7476385650095290
  0.0083563741470757  0.4957920160632726  0.5028721408574027
  0.5053131660376177  0.4957464785824088  0.4957991632577831
  0.0071188701574081 -0.0041295314118839  0.5015280964580549
  0.5068564087414753 -0.0041367116500859  0.4991864689745601
  0.2567325155550245  0.2491710998832382 -0.0015196537550374
  0.7568304944050246  0.2479124508546495 -0.0027830800162015
  0.2568344073255345  0.7422926424009564 -0.0009302684765332
  0.7566307057668999  0.7431777439704884 -0.0028371405110055
  0.2525180215429627  0.3706362371372263  0.3737421638435026
  0.7665253000243378  0.3747512457656612  0.3654820687947280
  0.2571084742549228  0.8701447169982796  0.3757749989870875
  0.7571990275370400  0.8700342757591508  0.3737151870101479
  0.5070258549418943  0.1207315734423477  0.8737403482210815
  0.0072647193197913  0.1205567470243539  0.8740925554315855
  0.5067429672229987  0.6194392348439544  0.8731248334093056
  0.0050017758185562  0.6205304389839854  0.8712803237532143
  0.3638567657981836  0.4953894499951105  0.1320834125030868
  0.8581368480082152  0.4954379217949862  0.1614037329536296
  0.3811536566248575  0.9954042604179986  0.1241672964958022
  0.8799332081587533 -0.0042003260484736  0.1201328152240780
  0.6320486061208874  0.2464347376921640  0.6228940507389433
  0.1321746897031513  0.2465792052311540  0.6218421718740752
  0.6316508089611659  0.7450853130321116  0.6228910839173039
  0.1317740090949513  0.7450929363389525  0.6218914865183967
  0.2523164839043862  0.6206651508396938  0.3737508278230926
  0.7662652716624583  0.6175377650810217  0.3652726824961430
  0.2572713883681753  0.1211566425249303  0.3756155099084897
  0.7573768764410559  0.1223589751160929  0.3740828654464385
  0.5067989115712789  0.3709471105609736  0.8729947502240054
  0.0050923177135215  0.3701579575927508  0.8711326804568164
  0.5068129291849744  0.8695695387736013  0.8735126730978607
  0.0072005122196426  0.8702069698346059  0.8741937180221566
  0.0745363131899259  0.4953583534337422  0.0790070775435621
  0.6191905518357509  0.4955203465254251  0.1135956185970831
  0.1303366998955564 -0.0043826404275933  0.1177737369566511
  0.6308511269411415 -0.0045478877220507  0.1239770444581630
  0.3820381341070369  0.2468154478528415  0.6228341646700486
  0.8822236872445578  0.2464344498043440  0.6220558005649459
  0.3814894426377707  0.7447389022372592  0.6226543122602045
  0.8817963799388980  0.7451514093799023  0.6216915807046534
  0.4990285113098767  0.4953941795146763  0.2458656227430621
  0.0059571429706634 -0.0041939752395238  0.2458376815617688
  0.5062169249946207  0.9952530029709233  0.2495773147330588
  0.2565180544257576  0.2472244387081845  0.7483316587304213
  0.7575508657245982  0.2470964784091519  0.7478345543137206
  0.2561144181108561  0.7442150638337142  0.7484702098361264
  0.7572867672126670  0.7444562817620792  0.7477251363768231
  0.0074164857750025  0.2465719681893549 -0.0014106151687294
  0.5072922035403583  0.2464704392165041 -0.0011875735189983
  0.0070860426400582  0.7441586480223293 -0.0013792066275388
  0.5069861428379315  0.7439890464811134 -0.0012024637017317
  0.2566217659319542 -0.0043225721856021  0.5001612342787954
  0.7564106930400492 -0.0039557380462023  0.4980221629341881
  0.2510085262346735  0.4956300132820644  0.4992457433670775
  0.7619247529039118  0.4962283918128041  0.4947251303553073
  0.0068483869855437  0.2475746099127850  0.4958022237813729
  0.5074634379604234  0.2476963933698168  0.4970432875822721
  0.0065747681509131  0.7437708633144290  0.4955869432848790
  0.5070386495972489  0.7436463620648445  0.4970085069737409
  0.2577564140643598 -0.0045109235181970 -0.0028870023336586
  0.7542902099829295 -0.0040685775823449 -0.0031031390418792
  0.2396830690072047  0.4954207156257796  0.0051202896459007
  0.7542730117492219  0.4956786193986966  0.0011871492660298
  0.0025809115162149  0.4954270287058308  0.7451587355073326
  0.5051498454527510  0.4952630777327303  0.7463069135958481
  0.0062929912531917 -0.0046105532131715  0.7486765195236761
  0.5070593698821850  0.9952544435922939  0.7485939537015479
  0.2549039814250904  0.2454124549530348  0.2488918073481084
  0.7616237867513788  0.2460877206135315  0.2465867406224188
  0.2544193334240470  0.7459326715363519  0.2490699984364110
  0.7610896795866223  0.7461454464081906  0.2463383408102150

  0.00000000E+00  0.00000000E+00  0.00000000E+00
  0.00000000E+00  0.00000000E+00  0.00000000E+00
  0.00000000E+00  0.00000000E+00  0.00000000E+00
  0.00000000E+00  0.00000000E+00  0.00000000E+00
  0.00000000E+00  0.00000000E+00  0.00000000E+00
  0.00000000E+00  0.00000000E+00  0.00000000E+00
  0.00000000E+00  0.00000000E+00  0.00000000E+00
  0.00000000E+00  0.00000000E+00  0.00000000E+00
  0.00000000E+00  0.00000000E+00  0.00000000E+00
  0.00000000E+00  0.00000000E+00  0.00000000E+00
  0.00000000E+00  0.00000000E+00  0.00000000E+00
  0.00000000E+00  0.00000000E+00  0.00000000E+00
  0.00000000E+00  0.00000000E+00  0.00000000E+00
  0.00000000E+00  0.00000000E+00  0.00000000E+00
  0.00000000E+00  0.00000000E+00  0.00000000E+00
  0.00000000E+00  0.00000000E+00  0.00000000E+00
  0.00000000E+00  0.00000000E+00  0.00000000E+00
  0.00000000E+00  0.00000000E+00  0.00000000E+00
  0.00000000E+00  0.00000000E+00  0.00000000E+00
  0.00000000E+00  0.00000000E+00  0.00000000E+00
  0.00000000E+00  0.00000000E+00  0.00000000E+00
  0.00000000E+00  0.00000000E+00  0.00000000E+00
  0.00000000E+00  0.00000000E+00  0.00000000E+00
  0.00000000E+00  0.00000000E+00  0.00000000E+00
  0.00000000E+00  0.00000000E+00  0.00000000E+00
  0.00000000E+00  0.00000000E+00  0.00000000E+00
  0.00000000E+00  0.00000000E+00  0.00000000E+00
  0.00000000E+00  0.00000000E+00  0.00000000E+00
  0.00000000E+00  0.00000000E+00  0.00000000E+00
  0.00000000E+00  0.00000000E+00  0.00000000E+00
  0.00000000E+00  0.00000000E+00  0.00000000E+00
  0.00000000E+00  0.00000000E+00  0.00000000E+00
  0.00000000E+00  0.00000000E+00  0.00000000E+00
  0.00000000E+00  0.00000000E+00  0.00000000E+00
  0.00000000E+00  0.00000000E+00  0.00000000E+00
  0.00000000E+00  0.00000000E+00  0.00000000E+00
  0.00000000E+00  0.00000000E+00  0.00000000E+00
  0.00000000E+00  0.00000000E+00  0.00000000E+00
  0.00000000E+00  0.00000000E+00  0.00000000E+00
  0.00000000E+00  0.00000000E+00  0.00000000E+00
  0.00000000E+00  0.00000000E+00  0.00000000E+00
  0.00000000E+00  0.00000000E+00  0.00000000E+00
  0.00000000E+00  0.00000000E+00  0.00000000E+00
  0.00000000E+00  0.00000000E+00  0.00000000E+00
  0.00000000E+00  0.00000000E+00  0.00000000E+00
  0.00000000E+00  0.00000000E+00  0.00000000E+00
  0.00000000E+00  0.00000000E+00  0.00000000E+00
  0.00000000E+00  0.00000000E+00  0.00000000E+00
  0.00000000E+00  0.00000000E+00  0.00000000E+00
  0.00000000E+00  0.00000000E+00  0.00000000E+00
  0.00000000E+00  0.00000000E+00  0.00000000E+00
  0.00000000E+00  0.00000000E+00  0.00000000E+00
  0.00000000E+00  0.00000000E+00  0.00000000E+00
  0.00000000E+00  0.00000000E+00  0.00000000E+00
  0.00000000E+00  0.00000000E+00  0.00000000E+00
  0.00000000E+00  0.00000000E+00  0.00000000E+00
  0.00000000E+00  0.00000000E+00  0.00000000E+00
  0.00000000E+00  0.00000000E+00  0.00000000E+00
  0.00000000E+00  0.00000000E+00  0.00000000E+00
  0.00000000E+00  0.00000000E+00  0.00000000E+00
  0.00000000E+00  0.00000000E+00  0.00000000E+00
  0.00000000E+00  0.00000000E+00  0.00000000E+00
  0.00000000E+00  0.00000000E+00  0.00000000E+00
  0.00000000E+00  0.00000000E+00  0.00000000E+00
  0.00000000E+00  0.00000000E+00  0.00000000E+00
  0.00000000E+00  0.00000000E+00  0.00000000E+00
  0.00000000E+00  0.00000000E+00  0.00000000E+00
  0.00000000E+00  0.00000000E+00  0.00000000E+00
  0.00000000E+00  0.00000000E+00  0.00000000E+00
  0.00000000E+00  0.00000000E+00  0.00000000E+00
  0.00000000E+00  0.00000000E+00  0.00000000E+00
  0.00000000E+00  0.00000000E+00  0.00000000E+00
  0.00000000E+00  0.00000000E+00  0.00000000E+00
  0.00000000E+00  0.00000000E+00  0.00000000E+00
  0.00000000E+00  0.00000000E+00  0.00000000E+00
  0.00000000E+00  0.00000000E+00  0.00000000E+00
  0.00000000E+00  0.00000000E+00  0.00000000E+00
  0.00000000E+00  0.00000000E+00  0.00000000E+00
  0.00000000E+00  0.00000000E+00  0.00000000E+00
