-17.5%_Bond__vac_1_Cd[0. 0. 0.]_-dNELECT
   1.0000000000000000     
    13.0867679999999993    0.0000000000000000    0.0000000000000000
     0.0000000000000000   13.0867679999999993    0.0000000000000000
     0.0000000000000000    0.0000000000000000   13.0867679999999993
   Cd   Te
    31    32
Direct
  0.0029823364210682  0.0046309664625504  0.4960690820470314
  0.0031016159998694  0.5047913523023400 -0.0038257526788419
  0.0026792653960025  0.5039944928288177  0.4959046701320247
  0.5032731594792664  0.0045619017447502  0.9959734311763259
  0.5032853452838880  0.0037761965697337  0.4956787421695855
  0.5033302570935032  0.5037349253331417  0.9956847081087058
  0.5031196773537315  0.5044887943337175  0.4960799224393051
  0.9957535363428555  0.2500328246473620  0.2413713434057000
  0.0101625912944438  0.2505381094504732  0.7501694213024716
  0.0117572048286406  0.7587099680390228  0.2417434973674744
  0.9961225840820127  0.7581686535957159  0.7499514124882565
  0.5023566246678830  0.2522086724372566  0.2442297959241073
  0.5039274895614151  0.2515854132062103  0.7475199203811721
  0.5039565937486826  0.7558812421309780  0.2437062491220832
  0.5023010157784541  0.7562546740628400  0.7479008770488668
  0.2464748901795133  0.9996072745028074  0.2415630075524867
  0.2467586407100520  0.0078648323844986  0.7505191377271367
  0.2536596407255668  0.5040154121680473  0.2454603752842457
  0.2532587011891960  0.5040806406523753  0.7468624874050285
  0.7605074678344004  0.0081388232251750  0.2412201521791750
  0.7601226630054535 -0.0000873573059601  0.7501252945607305
  0.7531604964299560  0.5045046941160473  0.2448877101001359
  0.7527789030823434  0.5042280860179801  0.7469116859453181
  0.2464886771093311  0.2502901735406077  0.9928688223842523
  0.2529687092916094  0.2526500230295778  0.4952927450065583
  0.2465537888389720  0.7581633808240427  0.0002179252268489
  0.2532025821681413  0.7554237004312527  0.4964903036368534
  0.7598573016662777  0.2504883305516600  0.9997026464145556
  0.7525416389433579  0.2530531734543879  0.4964175717992712
  0.7600042255456014  0.7586407191529120 -0.0076519569338909
  0.7530422841459766  0.7555500183133714  0.4951095540222519
  0.1274816468382032  0.1296752418620142  0.3694575721897209
  0.1190075004037908  0.1212044690814211  0.8795151919681266
  0.1292969177246504  0.6291152373962182  0.3712792161833008
  0.1278798700141525  0.6301086539677757  0.8700317739115111
  0.6288015188005588  0.1279967409301061  0.3691446309906855
  0.6308948789236064  0.1281781841410127  0.8717009910961077
  0.6274080075759129  0.6297778675806908  0.3701463464100886
  0.6286457247281745  0.6309624817553620  0.8720344240516460
  0.1275234569255860  0.3788643783596927  0.1218510852986058
  0.1290748683561150  0.3790893011336980  0.6205754176630695
  0.1187795833577842  0.8881818978028241  0.1114455093024715
  0.1275142390089180  0.8789591526630751  0.6218899035923233
  0.6285771597790454  0.3777074301714043  0.1201627524106866
  0.6270950771554344  0.3787333863369016  0.6215219907701500
  0.6305726588279678  0.8803224330695594  0.1198497311153988
  0.6286792409838626  0.8800624638155984  0.6223801225976656
  0.3756179766565701  0.1281909554803858  0.1201425459382456
  0.3774388481400843  0.1278377608704588  0.6220341609785518
  0.3778474312846788  0.6302930269463153  0.1197767380336574
  0.3788705802884242  0.6298791597544036  0.6216359606980056
  0.8877759663417885  0.1208418007142875  0.1113702216706058
  0.8785025717583549  0.1302101510723015  0.6219984613634265
  0.8789170245093182  0.6307183522462045  0.1220198580775593
  0.8769639923634185  0.6293800745257834  0.6206391714283344
  0.3790417629445630  0.3785497268738786  0.3706769449410914
  0.3776335517026556  0.3771909158964098  0.8715333182776499
  0.3777068508224616  0.8796939304256093  0.3692713285174844
  0.3757928005310993  0.8802393431494838  0.8722546040603534
  0.8769104306503380  0.3788867116376224  0.3708493592099747
  0.8786892115274967  0.3790712571464199  0.8701700564787592
  0.8792609879174771  0.8787796054471133  0.3697005189111007
  0.8879027549600683  0.8877717955422748  0.8794853091184360

  0.00000000E+00  0.00000000E+00  0.00000000E+00
  0.00000000E+00  0.00000000E+00  0.00000000E+00
  0.00000000E+00  0.00000000E+00  0.00000000E+00
  0.00000000E+00  0.00000000E+00  0.00000000E+00
  0.00000000E+00  0.00000000E+00  0.00000000E+00
  0.00000000E+00  0.00000000E+00  0.00000000E+00
  0.00000000E+00  0.00000000E+00  0.00000000E+00
  0.00000000E+00  0.00000000E+00  0.00000000E+00
  0.00000000E+00  0.00000000E+00  0.00000000E+00
  0.00000000E+00  0.00000000E+00  0.00000000E+00
  0.00000000E+00  0.00000000E+00  0.00000000E+00
  0.00000000E+00  0.00000000E+00  0.00000000E+00
  0.00000000E+00  0.00000000E+00  0.00000000E+00
  0.00000000E+00  0.00000000E+00  0.00000000E+00
  0.00000000E+00  0.00000000E+00  0.00000000E+00
  0.00000000E+00  0.00000000E+00  0.00000000E+00
  0.00000000E+00  0.00000000E+00  0.00000000E+00
  0.00000000E+00  0.00000000E+00  0.00000000E+00
  0.00000000E+00  0.00000000E+00  0.00000000E+00
  0.00000000E+00  0.00000000E+00  0.00000000E+00
  0.00000000E+00  0.00000000E+00  0.00000000E+00
  0.00000000E+00  0.00000000E+00  0.00000000E+00
  0.00000000E+00  0.00000000E+00  0.00000000E+00
  0.00000000E+00  0.00000000E+00  0.00000000E+00
  0.00000000E+00  0.00000000E+00  0.00000000E+00
  0.00000000E+00  0.00000000E+00  0.00000000E+00
  0.00000000E+00  0.00000000E+00  0.00000000E+00
  0.00000000E+00  0.00000000E+00  0.00000000E+00
  0.00000000E+00  0.00000000E+00  0.00000000E+00
  0.00000000E+00  0.00000000E+00  0.00000000E+00
  0.00000000E+00  0.00000000E+00  0.00000000E+00
  0.00000000E+00  0.00000000E+00  0.00000000E+00
  0.00000000E+00  0.00000000E+00  0.00000000E+00
  0.00000000E+00  0.00000000E+00  0.00000000E+00
  0.00000000E+00  0.00000000E+00  0.00000000E+00
  0.00000000E+00  0.00000000E+00  0.00000000E+00
  0.00000000E+00  0.00000000E+00  0.00000000E+00
  0.00000000E+00  0.00000000E+00  0.00000000E+00
  0.00000000E+00  0.00000000E+00  0.00000000E+00
  0.00000000E+00  0.00000000E+00  0.00000000E+00
  0.00000000E+00  0.00000000E+00  0.00000000E+00
  0.00000000E+00  0.00000000E+00  0.00000000E+00
  0.00000000E+00  0.00000000E+00  0.00000000E+00
  0.00000000E+00  0.00000000E+00  0.00000000E+00
  0.00000000E+00  0.00000000E+00  0.00000000E+00
  0.00000000E+00  0.00000000E+00  0.00000000E+00
  0.00000000E+00  0.00000000E+00  0.00000000E+00
  0.00000000E+00  0.00000000E+00  0.00000000E+00
  0.00000000E+00  0.00000000E+00  0.00000000E+00
  0.00000000E+00  0.00000000E+00  0.00000000E+00
  0.00000000E+00  0.00000000E+00  0.00000000E+00
  0.00000000E+00  0.00000000E+00  0.00000000E+00
  0.00000000E+00  0.00000000E+00  0.00000000E+00
  0.00000000E+00  0.00000000E+00  0.00000000E+00
  0.00000000E+00  0.00000000E+00  0.00000000E+00
  0.00000000E+00  0.00000000E+00  0.00000000E+00
  0.00000000E+00  0.00000000E+00  0.00000000E+00
  0.00000000E+00  0.00000000E+00  0.00000000E+00
  0.00000000E+00  0.00000000E+00  0.00000000E+00
  0.00000000E+00  0.00000000E+00  0.00000000E+00
  0.00000000E+00  0.00000000E+00  0.00000000E+00
  0.00000000E+00  0.00000000E+00  0.00000000E+00
  0.00000000E+00  0.00000000E+00  0.00000000E+00
