30.0%_BDM_Distortion_vac_1_Cd[0. 0. 0.]_
   1.00000000000000     
    13.0867679999999993    0.0000000000000000    0.0000000000000000
     0.0000000000000000   13.0867679999999993    0.0000000000000000
     0.0000000000000000    0.0000000000000000   13.0867679999999993
   Cd   Te
    31    32
Direct
  0.0026551656519777  0.9972209574086469  0.4997288808893112
  0.0024350393758600  0.4976069442606949 -0.0009054667584152
  0.0016405322663820  0.4969898253943543  0.5003891604011905
  0.5025196129128173  0.9973507594159285 -0.0010458873796007
  0.5018200795594563  0.9966958031716052  0.4999281796452540
  0.5018918952657522  0.4970332852024513 -0.0004921241087217
  0.5025153335159290  0.4975429054453465  0.4988704400454332
  0.9943970206784192  0.2428307812098198  0.2446493949362432
  0.0097371835356599  0.2414237332767597  0.7561894138756948
  0.0064597643038920  0.7514671101043074  0.2448531118450202
  0.9957159453378716  0.7534732333163571  0.7558288230780080
  0.5006516659916964  0.2457030804989439  0.2485980794199417
  0.5021589614139639  0.2458929891425414  0.7507554249562490
  0.5028310004711291  0.7490476017858186  0.2478338105847426
  0.5020683998283608  0.7483484951511015  0.7496722684327963
  0.2465233477335253 -0.0068144759819211  0.2455597473590060
  0.2458174846192205  0.0041568699362210  0.7551814964643389
  0.2505253606693167  0.4970058473826354  0.2481655723408316
  0.2512390031315354  0.4968519202779801  0.7509140208968288
  0.7576391857956818  0.0052116553305390  0.2445840399943818
  0.7585098048136814  0.9934916246548886  0.7553221872745067
  0.7524641886568979  0.4976352483993081  0.2489254762987343
  0.7532427406214957  0.4970844483123311  0.7507624713153952
  0.2452498732112790  0.2416185694691643 -0.0064813709435026
  0.2513818010284857  0.2465829974748941  0.4994190552515556
  0.2476411477213912  0.7524706151318379  0.0038809844506528
  0.2507517364302632  0.7475206075775123  0.5006773280699266
  0.7578491357113365  0.2432192573662921  0.0065443168247816
  0.7523197966536543  0.2459951553018616  0.5007691610787495
  0.7566246177830337  0.7527794909545154 -0.0058718945751473
  0.7539840096364172  0.7493489013282776  0.4993970391978440
  0.1264674286034383  0.1228589732259087  0.3733732130125909
  0.1168207974680326  0.1110253960328847  0.8853839513922795
  0.1262569067766764  0.6220913401117004  0.3745698555562877
  0.1273407156163137  0.6239296714418174  0.8742119664643928
  0.6265208042392483  0.1216681966450230  0.3748100837631050
  0.6293915734603928  0.1228066613270141  0.8753228204075051
  0.6275880455336652  0.6236414368828274  0.3747738207563471
  0.6268918600741594  0.6227922825982225  0.8749939036906994
  0.1262420149570582  0.3708068889955435  0.1246561329850892
  0.1266126277001494  0.3714128342062772  0.6254353081447028
  0.1196417977237366  0.8787808837640697  0.1176220003498634
  0.1267653818301489  0.8722112413119633  0.6262763899329884
  0.6265790549735756  0.3715324396276906  0.1250026430060638
  0.6265625946424097  0.3721168013438515  0.6252912254310652
  0.6288901568648787  0.8736135868708081  0.1246896819111936
  0.6286596990073947  0.8733215668326207  0.6257866026891448
  0.3751002203622944  0.1212999571503433  0.1240688669553789
  0.3765423130687384  0.1215092323253828  0.6250957527880016
  0.3764804755809296  0.6227566736057825  0.1242401355843327
  0.3768247301606319  0.6215510543956674  0.6248692474749417
  0.8864371912732609  0.1134213437080550  0.1157211936102565
  0.8781497914625771  0.1223588658855209  0.6263191804397673
  0.8761525409754178  0.6229550648009302  0.1241631379670132
  0.8776659835507670  0.6234163626754479  0.6258318427738837
  0.3765854231275231  0.3722780578984898  0.3741362428211309
  0.3763429302923322  0.3710264002110176  0.8753948899142117
  0.3761475235571607  0.8719458058633155  0.3742645773630925
  0.3760276910540713  0.8727299929824275  0.8740146287091490
  0.8762139194349624  0.3719018509903876  0.3752371738420454
  0.8774343294836147  0.3705277923450118  0.8749550788976123
  0.8772661541927104  0.8734614885236736  0.3732614216728459
  0.8856874886253152  0.8812706177193221  0.8848078885309704
 
  0.00000000E+00  0.00000000E+00  0.00000000E+00
  0.00000000E+00  0.00000000E+00  0.00000000E+00
  0.00000000E+00  0.00000000E+00  0.00000000E+00
  0.00000000E+00  0.00000000E+00  0.00000000E+00
  0.00000000E+00  0.00000000E+00  0.00000000E+00
  0.00000000E+00  0.00000000E+00  0.00000000E+00
  0.00000000E+00  0.00000000E+00  0.00000000E+00
  0.00000000E+00  0.00000000E+00  0.00000000E+00
  0.00000000E+00  0.00000000E+00  0.00000000E+00
  0.00000000E+00  0.00000000E+00  0.00000000E+00
  0.00000000E+00  0.00000000E+00  0.00000000E+00
  0.00000000E+00  0.00000000E+00  0.00000000E+00
  0.00000000E+00  0.00000000E+00  0.00000000E+00
  0.00000000E+00  0.00000000E+00  0.00000000E+00
  0.00000000E+00  0.00000000E+00  0.00000000E+00
  0.00000000E+00  0.00000000E+00  0.00000000E+00
  0.00000000E+00  0.00000000E+00  0.00000000E+00
  0.00000000E+00  0.00000000E+00  0.00000000E+00
  0.00000000E+00  0.00000000E+00  0.00000000E+00
  0.00000000E+00  0.00000000E+00  0.00000000E+00
  0.00000000E+00  0.00000000E+00  0.00000000E+00
  0.00000000E+00  0.00000000E+00  0.00000000E+00
  0.00000000E+00  0.00000000E+00  0.00000000E+00
  0.00000000E+00  0.00000000E+00  0.00000000E+00
  0.00000000E+00  0.00000000E+00  0.00000000E+00
  0.00000000E+00  0.00000000E+00  0.00000000E+00
  0.00000000E+00  0.00000000E+00  0.00000000E+00
  0.00000000E+00  0.00000000E+00  0.00000000E+00
  0.00000000E+00  0.00000000E+00  0.00000000E+00
  0.00000000E+00  0.00000000E+00  0.00000000E+00
  0.00000000E+00  0.00000000E+00  0.00000000E+00
  0.00000000E+00  0.00000000E+00  0.00000000E+00
  0.00000000E+00  0.00000000E+00  0.00000000E+00
  0.00000000E+00  0.00000000E+00  0.00000000E+00
  0.00000000E+00  0.00000000E+00  0.00000000E+00
  0.00000000E+00  0.00000000E+00  0.00000000E+00
  0.00000000E+00  0.00000000E+00  0.00000000E+00
  0.00000000E+00  0.00000000E+00  0.00000000E+00
  0.00000000E+00  0.00000000E+00  0.00000000E+00
  0.00000000E+00  0.00000000E+00  0.00000000E+00
  0.00000000E+00  0.00000000E+00  0.00000000E+00
  0.00000000E+00  0.00000000E+00  0.00000000E+00
  0.00000000E+00  0.00000000E+00  0.00000000E+00
  0.00000000E+00  0.00000000E+00  0.00000000E+00
  0.00000000E+00  0.00000000E+00  0.00000000E+00
  0.00000000E+00  0.00000000E+00  0.00000000E+00
  0.00000000E+00  0.00000000E+00  0.00000000E+00
  0.00000000E+00  0.00000000E+00  0.00000000E+00
  0.00000000E+00  0.00000000E+00  0.00000000E+00
  0.00000000E+00  0.00000000E+00  0.00000000E+00
  0.00000000E+00  0.00000000E+00  0.00000000E+00
  0.00000000E+00  0.00000000E+00  0.00000000E+00
  0.00000000E+00  0.00000000E+00  0.00000000E+00
  0.00000000E+00  0.00000000E+00  0.00000000E+00
  0.00000000E+00  0.00000000E+00  0.00000000E+00
  0.00000000E+00  0.00000000E+00  0.00000000E+00
  0.00000000E+00  0.00000000E+00  0.00000000E+00
  0.00000000E+00  0.00000000E+00  0.00000000E+00
  0.00000000E+00  0.00000000E+00  0.00000000E+00
  0.00000000E+00  0.00000000E+00  0.00000000E+00
  0.00000000E+00  0.00000000E+00  0.00000000E+00
  0.00000000E+00  0.00000000E+00  0.00000000E+00
  0.00000000E+00  0.00000000E+00  0.00000000E+00
