-55.0%_Bond__vac_1_Cd[0. 0. 0.]_-dNELECT
   1.0000000000000000     
    13.0867679999999993    0.0000000000000000    0.0000000000000000
     0.0000000000000000   13.0867679999999993    0.0000000000000000
     0.0000000000000000    0.0000000000000000   13.0867679999999993
   Cd   Te
    31    32
Direct
  0.0016951546842474  0.0152653251087268  0.4959716686648244
  0.0018956788428447  0.5162760529703752 -0.0040662436401292
  0.0018756012673726  0.4965368495794052  0.4955218545567346
  0.5016297418319009  0.0153478109915447  0.9960476423802248
  0.5010454944422720  0.0042172498891725  0.4966361889019805
  0.5021722056045713  0.4965766513529618  0.9961644082140951
  0.5015675547730754  0.5051094567441889  0.4961657444623249
  0.0099270824413816  0.2589108940217335  0.2325898721363773
  0.9936292008679874  0.2593554938337373  0.7584660113243874
  0.0106511972324140  0.7563435551897475  0.2390463518113520
  0.9921143499608563  0.7557524178360756  0.7523111871964772
  0.4989641206941893  0.2531534244190696  0.2413448551778992
  0.5046452790390896  0.2529754604521819  0.7507285425202693
  0.5020886409042555  0.7531323503527286  0.2443658346297088
  0.5013025874475217  0.7527923779661644  0.7475815344458701
  0.2476671304104652  0.9919902157155173  0.2415069211933055
  0.2760341588611870 -0.0266423598254811  0.7215472537817245
  0.2590660850834277  0.5123492009570969  0.2533424642779191
  0.2507576894496725  0.5019731151269505  0.7464746215519213
  0.7262085571747472  0.9739393572616233  0.2714322038657291
  0.7559204802948954 -0.0083039623330168  0.7500627752839634
  0.7525111916362207  0.5017119664680967  0.2452712964550988
  0.7444532078561886  0.5125859530963527  0.7384928593590154
  0.2391194164579823  0.2596090304109565  0.0036302873234126
  0.2473024488654039  0.2528314803795813  0.4928944818021020
  0.2453472933132324  0.7556975633510978  0.0051856504729171
  0.2501049557961236  0.7531521020596149  0.4960143696295103
  0.7651258561664026  0.2590352699281399  0.9874974677666988
  0.7562035488209243  0.2531766595384211  0.4989047967762597
  0.7583340452062722  0.7561767125235509 -0.0130897214163238
  0.7527969249179134  0.7530556630880102  0.4952963625443554
  0.1271335862319994  0.1296225207191602  0.3639607670966356
  0.0765884959955524  0.1374844962008442  0.9209831406560933
  0.1245417200143945  0.6285585988855095  0.3742767985515341
  0.1296421960940982  0.6331016274199947  0.8677763116448752
  0.6259337056615304  0.1313024712376684  0.3717528808596842
  0.6337337305190474  0.1295391879781810  0.8705622757789721
  0.6275606778879731  0.6281037922808004  0.3697339896992113
  0.6231549126460778  0.6284512814233815  0.8730819948914856
  0.1305406463822903  0.3983418513943094  0.1245703961191215
  0.1247934173271819  0.3722174834309831  0.6257960539688976
  0.1184097700656419  0.8861335886277431  0.1122005653631092
  0.1203150278941676  0.8779299794022819  0.6183734216480887
  0.6323452099221989  0.3719815338688153  0.1188805086651886
  0.6250886221344037  0.3774632733670126  0.6195673037529821
  0.6242470557999171  0.8784557378545347  0.1148986365556589
  0.6254491032079714  0.8772530077484763  0.6199544857184790
  0.3699286570278307  0.1300164246015690  0.1212036332298689
  0.3763250038551939  0.1311263388639214  0.6214915165309000
  0.3806570894708982  0.6281617145214974  0.1190073859618479
  0.3754674794225418  0.6285382320029124  0.6218692572573998
  0.9282011960492896  0.1369912247884237  0.0693670466040696
  0.8761807134323804  0.1296841358339385  0.6276791659564980
  0.8736833373870571  0.6327680914422370  0.1238460443634539
  0.8786091133342157  0.6283073355326143  0.6166588903750625
  0.3783409247197243  0.3774750965758409  0.3725179705256115
  0.3717547625127362  0.3727698734586302  0.8727546051402248
  0.3777562364166251  0.8775220101657233  0.3719491986900016
  0.3793518053256915  0.8780214839866797  0.8772430649826770
  0.8787852845564516  0.3719715602623393  0.3655640601616061
  0.8732177773788967  0.3985940310733573  0.8670313656480064
  0.8826037836786818  0.8783762588238793  0.3733755338777667
  0.8853470773023285  0.8860964177724150  0.8794321862750030

  0.00000000E+00  0.00000000E+00  0.00000000E+00
  0.00000000E+00  0.00000000E+00  0.00000000E+00
  0.00000000E+00  0.00000000E+00  0.00000000E+00
  0.00000000E+00  0.00000000E+00  0.00000000E+00
  0.00000000E+00  0.00000000E+00  0.00000000E+00
  0.00000000E+00  0.00000000E+00  0.00000000E+00
  0.00000000E+00  0.00000000E+00  0.00000000E+00
  0.00000000E+00  0.00000000E+00  0.00000000E+00
  0.00000000E+00  0.00000000E+00  0.00000000E+00
  0.00000000E+00  0.00000000E+00  0.00000000E+00
  0.00000000E+00  0.00000000E+00  0.00000000E+00
  0.00000000E+00  0.00000000E+00  0.00000000E+00
  0.00000000E+00  0.00000000E+00  0.00000000E+00
  0.00000000E+00  0.00000000E+00  0.00000000E+00
  0.00000000E+00  0.00000000E+00  0.00000000E+00
  0.00000000E+00  0.00000000E+00  0.00000000E+00
  0.00000000E+00  0.00000000E+00  0.00000000E+00
  0.00000000E+00  0.00000000E+00  0.00000000E+00
  0.00000000E+00  0.00000000E+00  0.00000000E+00
  0.00000000E+00  0.00000000E+00  0.00000000E+00
  0.00000000E+00  0.00000000E+00  0.00000000E+00
  0.00000000E+00  0.00000000E+00  0.00000000E+00
  0.00000000E+00  0.00000000E+00  0.00000000E+00
  0.00000000E+00  0.00000000E+00  0.00000000E+00
  0.00000000E+00  0.00000000E+00  0.00000000E+00
  0.00000000E+00  0.00000000E+00  0.00000000E+00
  0.00000000E+00  0.00000000E+00  0.00000000E+00
  0.00000000E+00  0.00000000E+00  0.00000000E+00
  0.00000000E+00  0.00000000E+00  0.00000000E+00
  0.00000000E+00  0.00000000E+00  0.00000000E+00
  0.00000000E+00  0.00000000E+00  0.00000000E+00
  0.00000000E+00  0.00000000E+00  0.00000000E+00
  0.00000000E+00  0.00000000E+00  0.00000000E+00
  0.00000000E+00  0.00000000E+00  0.00000000E+00
  0.00000000E+00  0.00000000E+00  0.00000000E+00
  0.00000000E+00  0.00000000E+00  0.00000000E+00
  0.00000000E+00  0.00000000E+00  0.00000000E+00
  0.00000000E+00  0.00000000E+00  0.00000000E+00
  0.00000000E+00  0.00000000E+00  0.00000000E+00
  0.00000000E+00  0.00000000E+00  0.00000000E+00
  0.00000000E+00  0.00000000E+00  0.00000000E+00
  0.00000000E+00  0.00000000E+00  0.00000000E+00
  0.00000000E+00  0.00000000E+00  0.00000000E+00
  0.00000000E+00  0.00000000E+00  0.00000000E+00
  0.00000000E+00  0.00000000E+00  0.00000000E+00
  0.00000000E+00  0.00000000E+00  0.00000000E+00
  0.00000000E+00  0.00000000E+00  0.00000000E+00
  0.00000000E+00  0.00000000E+00  0.00000000E+00
  0.00000000E+00  0.00000000E+00  0.00000000E+00
  0.00000000E+00  0.00000000E+00  0.00000000E+00
  0.00000000E+00  0.00000000E+00  0.00000000E+00
  0.00000000E+00  0.00000000E+00  0.00000000E+00
  0.00000000E+00  0.00000000E+00  0.00000000E+00
  0.00000000E+00  0.00000000E+00  0.00000000E+00
  0.00000000E+00  0.00000000E+00  0.00000000E+00
  0.00000000E+00  0.00000000E+00  0.00000000E+00
  0.00000000E+00  0.00000000E+00  0.00000000E+00
  0.00000000E+00  0.00000000E+00  0.00000000E+00
  0.00000000E+00  0.00000000E+00  0.00000000E+00
  0.00000000E+00  0.00000000E+00  0.00000000E+00
  0.00000000E+00  0.00000000E+00  0.00000000E+00
  0.00000000E+00  0.00000000E+00  0.00000000E+00
  0.00000000E+00  0.00000000E+00  0.00000000E+00
