40.0%__num_neighbours=1__Vac_O_mult32   
   1.0000000000000000     
     0.0000000000000000   10.7468629999999994    0.0000000000000000
   -10.7468629999999994    0.0000000000000000    0.0000000000000000
     0.0000000000000000    0.0000000000000000    9.7925889999999995
   Sr   Cu   O 
    16    32    31
Direct
  0.0002813646882670  0.2317652694248695  0.2466028477762297
  0.5015477359051579  0.2442545044932568  0.2472803226524463
  0.0004253915241610  0.7579891395161487  0.2468254829624938
  0.5016147289611315  0.7452920760838481  0.2474995579428572
  0.2517188827546893 -0.0053655386636988  0.7463897073670008
  0.7506752643934972 -0.0050084139319233  0.7470348518198932
  0.2540013476603250  0.4947213972133813  0.7453020847993155
  0.7490115520790483  0.4950640132929447  0.7473479345189364
  0.0007840860611033  0.4950106786072112  0.5079293802013947
  0.5013814448574679  0.4947492429285847  0.4959266790215475
  0.0010988870066070 -0.0048282923565101  0.4997935810412854
  0.5013133416158198 -0.0050572751502830  0.4974584069031583
  0.2548112757020016  0.2459021547308998 -0.0047292922267270
  0.7480973826346370  0.2465275022060657 -0.0036114991020249
  0.2547298176508135  0.7434050895040147 -0.0044620770633663
  0.7479805037574975  0.7432100288266029 -0.0034242957264389
  0.2420682177873146  0.3740089028661212  0.3601980290020943
  0.7576352471698360  0.3726127885487863  0.3669297246700469
  0.2508673599131344  0.8691326730230651  0.3724683072193379
  0.7511918819550315  0.8701734655266539  0.3732122387350493
  0.5013676822040918  0.1197898527964632  0.8708803521147498
  0.0010516462203014  0.1194002880858194  0.8740903126814246
  0.5013036694444355  0.6198726591418628  0.8704396751618289
  0.0025033226979167  0.6148806259210323  0.8878237221993408
  0.3795349214413340  0.4946630069035934  0.1212777178637241
  0.9023890137375684  0.4948108490082335  0.0920928593451257
  0.3757421345183385  0.9946782422729631  0.1234716568431724
  0.8767144516690739 -0.0051459846798463  0.1155638439053560
  0.6268127578603025  0.2455594357301512  0.6224773875109358
  0.1272961548337978  0.2450353427967659  0.6189757190425409
  0.6264881648279526  0.7445363553236174  0.6227750268059570
  0.1268642371781060  0.7445777838237938  0.6191635568385256
  0.2421851885223914  0.6158729224803863  0.3608681883513246
  0.7576334226916176  0.6189727601050806  0.3672957429751706
  0.2508791002891810  0.1210250890691091  0.3722561828920401
  0.7509997536117483  0.1216495947664031  0.3734222825649762
  0.5014495754233310  0.3691755044395051  0.8703838821705466
  0.0025746426284906  0.3752915195155585  0.8875959912669802
  0.5013526124126104  0.8692706083772508  0.8710615464239040
  0.0009988325271821  0.8708999361024067  0.8745104370035760
  0.1177944631365031  0.4946067303633144  0.1135836567527479
  0.6286177136048429  0.4945942405311747  0.1253656584914948
  0.1256249997806116 -0.0051734130033277  0.1159700552660951
  0.6260567573807421 -0.0050416215308510  0.1233730234323732
  0.3772144835828540  0.2448103184300330  0.6226210114798462
  0.8763944810305694  0.2453576658667208  0.6199814396294872
  0.3768051342201712  0.7444363657398098  0.6225461819235292
  0.8758314513322119  0.7446573142243534  0.6195637574621058
  0.5022828437800204  0.4946362642263886  0.2495549335043288
  0.0010077412541564 -0.0052045298192180  0.2437623327622332
  0.5008945719350746  0.9946655440266841  0.2485189849672176
  0.2503498964116659  0.2451222682109302  0.7460835371967365
  0.7530969082492800  0.2459105120676690  0.7468938647328029
  0.2500309757808498  0.7436591224212279  0.7461298855948469
  0.7529169233304580  0.7439873468981487  0.7470378489673055
  0.0012492908827343  0.2423756818976694  0.0012069554978150
  0.5016237442687532  0.2445588419654229 -0.0029762909531940
  0.0010005197492601  0.7478140976469647  0.0014570522943044
  0.5014184823716449  0.7444416470095813 -0.0028232758436107
  0.2507053401914672 -0.0048240887861795  0.4967292858349900
  0.7515743975203666 -0.0042092743396075  0.4977207490491984
  0.2431968668186835  0.4947053258557190  0.4906546178897669
  0.7581606252972827  0.4956254408323306  0.4945461797441474
  0.0015062540319356  0.2479119122251054  0.4945868288847106
  0.5017353233598025  0.2462228754957545  0.4965169420428617
  0.0012624877251074  0.7424303135138111  0.4945860171872222
  0.5015502496414181  0.7434476908718328  0.4967262241351130
  0.2532901929366453 -0.0050807420807583 -0.0049385468995773
  0.7487144475962199 -0.0047080675581068  0.9953335484896789
  0.2570132350952741  0.4946996025954742 -0.0056549575345127
  0.7499249940101488  0.4947504489965883  0.9968520078156792
  0.0030553383814933  0.4951630258185895  0.7545074303230065
  0.5014174779905287  0.4945646018582357  0.7447596965495195
  0.0010504196279667 -0.0050407647102274  0.7473302125198411
  0.5008097879806256 -0.0055432460501905  0.7459122461467397
  0.2476165843722780  0.2435481370306047  0.2435487021365571
  0.7538226388957568  0.2450320156271953  0.2457444067072122
  0.2474985046331968  0.7462114169414739  0.2440841829328985
  0.7537874529941152  0.7463461800194731  0.2459605564107737

  0.00000000E+00  0.00000000E+00  0.00000000E+00
  0.00000000E+00  0.00000000E+00  0.00000000E+00
  0.00000000E+00  0.00000000E+00  0.00000000E+00
  0.00000000E+00  0.00000000E+00  0.00000000E+00
  0.00000000E+00  0.00000000E+00  0.00000000E+00
  0.00000000E+00  0.00000000E+00  0.00000000E+00
  0.00000000E+00  0.00000000E+00  0.00000000E+00
  0.00000000E+00  0.00000000E+00  0.00000000E+00
  0.00000000E+00  0.00000000E+00  0.00000000E+00
  0.00000000E+00  0.00000000E+00  0.00000000E+00
  0.00000000E+00  0.00000000E+00  0.00000000E+00
  0.00000000E+00  0.00000000E+00  0.00000000E+00
  0.00000000E+00  0.00000000E+00  0.00000000E+00
  0.00000000E+00  0.00000000E+00  0.00000000E+00
  0.00000000E+00  0.00000000E+00  0.00000000E+00
  0.00000000E+00  0.00000000E+00  0.00000000E+00
  0.00000000E+00  0.00000000E+00  0.00000000E+00
  0.00000000E+00  0.00000000E+00  0.00000000E+00
  0.00000000E+00  0.00000000E+00  0.00000000E+00
  0.00000000E+00  0.00000000E+00  0.00000000E+00
  0.00000000E+00  0.00000000E+00  0.00000000E+00
  0.00000000E+00  0.00000000E+00  0.00000000E+00
  0.00000000E+00  0.00000000E+00  0.00000000E+00
  0.00000000E+00  0.00000000E+00  0.00000000E+00
  0.00000000E+00  0.00000000E+00  0.00000000E+00
  0.00000000E+00  0.00000000E+00  0.00000000E+00
  0.00000000E+00  0.00000000E+00  0.00000000E+00
  0.00000000E+00  0.00000000E+00  0.00000000E+00
  0.00000000E+00  0.00000000E+00  0.00000000E+00
  0.00000000E+00  0.00000000E+00  0.00000000E+00
  0.00000000E+00  0.00000000E+00  0.00000000E+00
  0.00000000E+00  0.00000000E+00  0.00000000E+00
  0.00000000E+00  0.00000000E+00  0.00000000E+00
  0.00000000E+00  0.00000000E+00  0.00000000E+00
  0.00000000E+00  0.00000000E+00  0.00000000E+00
  0.00000000E+00  0.00000000E+00  0.00000000E+00
  0.00000000E+00  0.00000000E+00  0.00000000E+00
  0.00000000E+00  0.00000000E+00  0.00000000E+00
  0.00000000E+00  0.00000000E+00  0.00000000E+00
  0.00000000E+00  0.00000000E+00  0.00000000E+00
  0.00000000E+00  0.00000000E+00  0.00000000E+00
  0.00000000E+00  0.00000000E+00  0.00000000E+00
  0.00000000E+00  0.00000000E+00  0.00000000E+00
  0.00000000E+00  0.00000000E+00  0.00000000E+00
  0.00000000E+00  0.00000000E+00  0.00000000E+00
  0.00000000E+00  0.00000000E+00  0.00000000E+00
  0.00000000E+00  0.00000000E+00  0.00000000E+00
  0.00000000E+00  0.00000000E+00  0.00000000E+00
  0.00000000E+00  0.00000000E+00  0.00000000E+00
  0.00000000E+00  0.00000000E+00  0.00000000E+00
  0.00000000E+00  0.00000000E+00  0.00000000E+00
  0.00000000E+00  0.00000000E+00  0.00000000E+00
  0.00000000E+00  0.00000000E+00  0.00000000E+00
  0.00000000E+00  0.00000000E+00  0.00000000E+00
  0.00000000E+00  0.00000000E+00  0.00000000E+00
  0.00000000E+00  0.00000000E+00  0.00000000E+00
  0.00000000E+00  0.00000000E+00  0.00000000E+00
  0.00000000E+00  0.00000000E+00  0.00000000E+00
  0.00000000E+00  0.00000000E+00  0.00000000E+00
  0.00000000E+00  0.00000000E+00  0.00000000E+00
  0.00000000E+00  0.00000000E+00  0.00000000E+00
  0.00000000E+00  0.00000000E+00  0.00000000E+00
  0.00000000E+00  0.00000000E+00  0.00000000E+00
  0.00000000E+00  0.00000000E+00  0.00000000E+00
  0.00000000E+00  0.00000000E+00  0.00000000E+00
  0.00000000E+00  0.00000000E+00  0.00000000E+00
  0.00000000E+00  0.00000000E+00  0.00000000E+00
  0.00000000E+00  0.00000000E+00  0.00000000E+00
  0.00000000E+00  0.00000000E+00  0.00000000E+00
  0.00000000E+00  0.00000000E+00  0.00000000E+00
  0.00000000E+00  0.00000000E+00  0.00000000E+00
  0.00000000E+00  0.00000000E+00  0.00000000E+00
  0.00000000E+00  0.00000000E+00  0.00000000E+00
  0.00000000E+00  0.00000000E+00  0.00000000E+00
  0.00000000E+00  0.00000000E+00  0.00000000E+00
  0.00000000E+00  0.00000000E+00  0.00000000E+00
  0.00000000E+00  0.00000000E+00  0.00000000E+00
  0.00000000E+00  0.00000000E+00  0.00000000E+00
  0.00000000E+00  0.00000000E+00  0.00000000E+00
