-50.0%__num_neighbours=1__Vac_O_mult32  
   1.0000000000000000     
     0.0000000000000000   10.7468629999999994    0.0000000000000000
   -10.7468629999999994    0.0000000000000000    0.0000000000000000
     0.0000000000000000    0.0000000000000000    9.7925889999999995
   Sr   Cu   O 
    16    32    31
Direct
  0.0091017649805766  0.2325709248622697  0.2469804831942779
  0.5052417523349901  0.2451926638121242  0.2476043694400148
  0.0093179369238997  0.7589609243304358  0.2473509069163438
  0.5054351702946285  0.7462800404173493  0.2481809173421596
  0.2583110036869531 -0.0042250935699349  0.7497499263571419
  0.7562194517314860  0.9956011902958466  0.7488074591589547
  0.2582577599601493  0.4959909822163040  0.7512945633783416
  0.7541540890832712  0.4958954345571397  0.7480384227822215
  0.0085827349404235  0.4956964552862449  0.5032111592218069
  0.5056692949671817  0.4957540823776080  0.4960297122180409
  0.0073382270271002 -0.0041420824798751  0.5020271385778677
  0.5072181273854696 -0.0039559470837408  0.4994678832713136
  0.2567690195856137  0.2492678780290715 -0.0015047745771963
  0.7569524496818683  0.2481123749853166 -0.0025597152353358
  0.2570499410372086  0.7424233134165127 -0.0007268457160530
  0.7571297367463055  0.7431047365353619 -0.0018951106822446
  0.2526248579851635  0.3705194321665837  0.3736860811521453
  0.7664858966945629  0.3744273530804278  0.3657735194645484
  0.2573679095166317  0.8700041078676177  0.3761967007789096
  0.7577605348413887  0.8697507393851407  0.3745221041797804
  0.5071223027374607  0.1209482065696814  0.8735764511990997
  0.0074211762248481  0.1206241561275458  0.8742739262551757
  0.5070778072605625  0.6195944057501888  0.8734396019115850
  0.0054865716908449  0.6204512389557670  0.8717717873562609
  0.3645237087056552  0.4955738547476688  0.1319518327555589
  0.8588145302018094  0.4954377033587665  0.1618230529728253
  0.3816177291680073  0.9955917661176049  0.1242674742630292
  0.8805559858444543 -0.0041051896934300  0.1205550716240691
  0.6322120796270141  0.2465077404849722  0.6231105676972408
  0.1322860790051852  0.2464810011601005  0.6218275247960563
  0.6319224785470486  0.7451851733839068  0.6236124180066625
  0.1321767352905384  0.7450150378928295  0.6223901658374502
  0.2526679917681557  0.6204661446363104  0.3739823469624586
  0.7666348278477224  0.6172834453466657  0.3656781894828262
  0.2573814999110335  0.1210745990502457  0.3757317479289395
  0.7575650378285413  0.1220752316977025  0.3741990022284384
  0.5069941346423401  0.3711726903727240  0.8730286307988177
  0.0053849103873787  0.3704020902972648  0.8715786091240274
  0.5072125807784077  0.8696896945716156  0.8740858460484329
  0.0075581294122776  0.8700038367508585  0.8748206115112332
  0.0755021919383975  0.4954333704819249  0.0798054369499729
  0.6197426628180670  0.4957271318448842  0.1138355290341204
  0.1308536239078367 -0.0043506699219427  0.1182920592802018
  0.6313545861148687 -0.0044138512308123  0.1243066441988064
  0.3821523581390088  0.2467770392481887  0.6227464947351278
  0.8823378294793881  0.2464029107075248  0.6223427786071275
  0.3819486229683221  0.7447544105471218  0.6230389483543166
  0.8821808611619475  0.7450410283109682  0.6224973689496351
  0.4994640941058940  0.4957485708071244  0.2460112899964065
  0.0065199694574590 -0.0042289702991927  0.2463845363583327
  0.5066090599751164  0.9955886511356670  0.2497559691433229
  0.2566428899432839  0.2470912070874292  0.7482542311887981
  0.7576749845700286  0.2471281498784564  0.7481309078312423
  0.2565974307696903  0.7441834611964182  0.7488259751529828
  0.7575792175650268  0.7443690389899789  0.7484783245513024
  0.0074418932360726  0.2466581213471768 -0.0011912121815822
  0.5072370695120302  0.2466289359840443 -0.0012432024697293
  0.0075574282953187  0.7439400330629876 -0.0006839749494117
  0.5073729832007928  0.7439967998415790 -0.0006849365835654
  0.2568380103726753 -0.0043220125250811  0.5004021623254316
  0.7566168823304276 -0.0039851390492746  0.4984723958553194
  0.2511908584133838  0.4953765493909379  0.4993528039534071
  0.7618543149587158  0.4958893478012153  0.4950480627460328
  0.0068737434898050  0.2474746553559584  0.4959617351202463
  0.5076791918790204  0.2477659395271957  0.4971369332088176
  0.0068725674682095  0.7436148721185586  0.4962753578134165
  0.5074923785330151  0.7438855719697046  0.4974532774049064
  0.2580889962262868 -0.0044690124169440 -0.0026469603355747
  0.7548904184231602 -0.0039886039208186 -0.0026548841344795
  0.2403259750745202  0.4954985849378974  0.0051140701078233
  0.7549163610643259  0.4957332323551574  0.0015048637337740
  0.0032110401930704  0.4955079360828691  0.7454264102806947
  0.5054823567928155  0.4955601385569818  0.7464380928548960
  0.0065572468566786 -0.0048579434692888  0.7491956467103836
  0.5073368417354701  0.9951452315015583  0.7488695530308576
  0.2549421413051917  0.2452557433473055  0.2489106342843714
  0.7616736630781069  0.2458565459097373  0.2467631868834966
  0.2548523668806208  0.7458083835733436  0.2494293596449123
  0.7618859314818192  0.7460302718666684  0.2470183703806541

  0.00000000E+00  0.00000000E+00  0.00000000E+00
  0.00000000E+00  0.00000000E+00  0.00000000E+00
  0.00000000E+00  0.00000000E+00  0.00000000E+00
  0.00000000E+00  0.00000000E+00  0.00000000E+00
  0.00000000E+00  0.00000000E+00  0.00000000E+00
  0.00000000E+00  0.00000000E+00  0.00000000E+00
  0.00000000E+00  0.00000000E+00  0.00000000E+00
  0.00000000E+00  0.00000000E+00  0.00000000E+00
  0.00000000E+00  0.00000000E+00  0.00000000E+00
  0.00000000E+00  0.00000000E+00  0.00000000E+00
  0.00000000E+00  0.00000000E+00  0.00000000E+00
  0.00000000E+00  0.00000000E+00  0.00000000E+00
  0.00000000E+00  0.00000000E+00  0.00000000E+00
  0.00000000E+00  0.00000000E+00  0.00000000E+00
  0.00000000E+00  0.00000000E+00  0.00000000E+00
  0.00000000E+00  0.00000000E+00  0.00000000E+00
  0.00000000E+00  0.00000000E+00  0.00000000E+00
  0.00000000E+00  0.00000000E+00  0.00000000E+00
  0.00000000E+00  0.00000000E+00  0.00000000E+00
  0.00000000E+00  0.00000000E+00  0.00000000E+00
  0.00000000E+00  0.00000000E+00  0.00000000E+00
  0.00000000E+00  0.00000000E+00  0.00000000E+00
  0.00000000E+00  0.00000000E+00  0.00000000E+00
  0.00000000E+00  0.00000000E+00  0.00000000E+00
  0.00000000E+00  0.00000000E+00  0.00000000E+00
  0.00000000E+00  0.00000000E+00  0.00000000E+00
  0.00000000E+00  0.00000000E+00  0.00000000E+00
  0.00000000E+00  0.00000000E+00  0.00000000E+00
  0.00000000E+00  0.00000000E+00  0.00000000E+00
  0.00000000E+00  0.00000000E+00  0.00000000E+00
  0.00000000E+00  0.00000000E+00  0.00000000E+00
  0.00000000E+00  0.00000000E+00  0.00000000E+00
  0.00000000E+00  0.00000000E+00  0.00000000E+00
  0.00000000E+00  0.00000000E+00  0.00000000E+00
  0.00000000E+00  0.00000000E+00  0.00000000E+00
  0.00000000E+00  0.00000000E+00  0.00000000E+00
  0.00000000E+00  0.00000000E+00  0.00000000E+00
  0.00000000E+00  0.00000000E+00  0.00000000E+00
  0.00000000E+00  0.00000000E+00  0.00000000E+00
  0.00000000E+00  0.00000000E+00  0.00000000E+00
  0.00000000E+00  0.00000000E+00  0.00000000E+00
  0.00000000E+00  0.00000000E+00  0.00000000E+00
  0.00000000E+00  0.00000000E+00  0.00000000E+00
  0.00000000E+00  0.00000000E+00  0.00000000E+00
  0.00000000E+00  0.00000000E+00  0.00000000E+00
  0.00000000E+00  0.00000000E+00  0.00000000E+00
  0.00000000E+00  0.00000000E+00  0.00000000E+00
  0.00000000E+00  0.00000000E+00  0.00000000E+00
  0.00000000E+00  0.00000000E+00  0.00000000E+00
  0.00000000E+00  0.00000000E+00  0.00000000E+00
  0.00000000E+00  0.00000000E+00  0.00000000E+00
  0.00000000E+00  0.00000000E+00  0.00000000E+00
  0.00000000E+00  0.00000000E+00  0.00000000E+00
  0.00000000E+00  0.00000000E+00  0.00000000E+00
  0.00000000E+00  0.00000000E+00  0.00000000E+00
  0.00000000E+00  0.00000000E+00  0.00000000E+00
  0.00000000E+00  0.00000000E+00  0.00000000E+00
  0.00000000E+00  0.00000000E+00  0.00000000E+00
  0.00000000E+00  0.00000000E+00  0.00000000E+00
  0.00000000E+00  0.00000000E+00  0.00000000E+00
  0.00000000E+00  0.00000000E+00  0.00000000E+00
  0.00000000E+00  0.00000000E+00  0.00000000E+00
  0.00000000E+00  0.00000000E+00  0.00000000E+00
  0.00000000E+00  0.00000000E+00  0.00000000E+00
  0.00000000E+00  0.00000000E+00  0.00000000E+00
  0.00000000E+00  0.00000000E+00  0.00000000E+00
  0.00000000E+00  0.00000000E+00  0.00000000E+00
  0.00000000E+00  0.00000000E+00  0.00000000E+00
  0.00000000E+00  0.00000000E+00  0.00000000E+00
  0.00000000E+00  0.00000000E+00  0.00000000E+00
  0.00000000E+00  0.00000000E+00  0.00000000E+00
  0.00000000E+00  0.00000000E+00  0.00000000E+00
  0.00000000E+00  0.00000000E+00  0.00000000E+00
  0.00000000E+00  0.00000000E+00  0.00000000E+00
  0.00000000E+00  0.00000000E+00  0.00000000E+00
  0.00000000E+00  0.00000000E+00  0.00000000E+00
  0.00000000E+00  0.00000000E+00  0.00000000E+00
  0.00000000E+00  0.00000000E+00  0.00000000E+00
  0.00000000E+00  0.00000000E+00  0.00000000E+00
