#===============================================================================
# FHI-aims file: ./vac_1_Cd_0/Bond_Distortion_30.0%/control.in
# Created using the Atomic Simulation Environment (ASE)
# Tue Jun 28 19:14:34 2022
#===============================================================================
k_grid                             1 1 1
relax_geometry                     bfgs 0.005
xc                                 hse06 0.11
hse_unit                           A
spin                               collinear
default_initial_moment             0
hybrid_xc_coeff                    0.25
charge                             0
#===============================================================================

