#=======================================================
# FHI-aims file: ./vac_1_Cd_0/Bond_Distortion_30.0%/geometry.in
# Created using the Atomic Simulation Environment (ASE)
# Tue Jun 28 19:01:44 2022

# Additional information:
# Bond_Distortion_30.0%
#=======================================================
lattice_vector 13.0867679999999993 0.0000000000000000 0.0000000000000000 
lattice_vector 0.0000000000000000 13.0867679999999993 0.0000000000000000 
lattice_vector 0.0000000000000000 0.0000000000000000 13.0867679999999993 
atom 0.2052936932758500 0.2205109576881273 6.5612600102158574 Cd
atom 0.3553059025729255 6.4874540929781475 0.1311618230122850 Cd
atom -0.0189701911607841 6.5181677929482937 6.2570352665515978 Cd
atom 6.1796951707698948 0.2623979356882521 -0.2390850835613366 Cd
atom 6.3936521121904644 -0.0705098423139932 6.3047768911641437 Cd
atom 6.6170390438325608 6.7871616779734767 -0.3530104837142713 Cd
atom 6.2838583436384692 6.8800332032572182 6.8680083180258471 Cd
atom -0.4558335511061297 3.5713061157765242 3.1244141346296392 Cd
atom -0.1383866466025478 3.4883477926689168 9.4875198666467657 Cd
atom -0.0990547023004221 9.2565757915833569 3.3244344470477869 Cd
atom -0.0666252559268476 9.6258716381259113 10.0500411858898566 Cd
atom 6.5509957445320754 3.6911705273059838 3.0562876061738304 Cd
atom 6.7586762217675860 3.3272456173990799 9.5832095080666662 Cd
atom 6.6360757260381629 9.8497071994901475 3.7883128703156927 Cd
atom 6.6082747312743644 10.0528258948989961 9.9353986711051991 Cd
atom 3.0288526342781990 -0.1828111303293296 3.5476901541677432 Cd
atom 3.1098991491827181 0.0702601670675559 9.6601980420982336 Cd
atom 3.5574730474772114 6.4424748675310051 3.2085931359145703 Cd
atom 3.4325905045235752 6.7705044623238644 9.5012728266293589 Cd
atom 9.7117087314473167 -0.4834176904988506 3.4040015301167870 Cd
atom 10.0022302058778685 0.1080439952421004 9.6516807338262840 Cd
atom 10.1714269096222854 6.6241789284778125 3.1655379298366269 Cd
atom 9.3085127617327057 6.4018087673744111 9.7533878631021214 Cd
atom 3.3994529297819422 3.4742102051198702 -0.1808313194583497 Cd
atom 3.7387736554007409 3.4910359408339655 6.3135534511056663 Cd
atom 3.3414555871518021 9.5849079909416393 -0.3544370839366775 Cd
atom 3.7662073051696652 9.4368196528213790 6.4918174677595815 Cd
atom 10.1502177203142114 3.5291627194636939 -0.1238205693777962 Cd
atom 10.0435753234425622 3.1852362329561856 6.9917138829658576 Cd
atom 10.0242116925072136 9.9364450729702014 0.1104867397104345 Cd
atom 9.7510717927949635 9.8455033093942799 6.4614014274435920 Cd
atom 1.5541433257439505 1.9734023806523413 4.9233741104933966 Te
atom 2.1266235285384507 2.1266235285384507 10.9601444714615468 Te
atom 1.7174543390885435 8.2820291303182643 5.4998426799405724 Te
atom 1.4773444045298159 8.0914853903993702 11.0884702149213155 Te
atom 8.2653380643213445 1.6043581687614372 4.8425490396620576 Te
atom 8.2235256057688098 1.4452015062676518 11.0741478414438568 Te
atom 8.1546704363793001 8.4171284305544347 4.9777313382637383 Te
atom 8.0256553870445106 8.4325657640099507 11.6792998138025936 Te
atom 1.4910276873596200 4.8183441414172528 1.9865939846203997 Te
atom 1.6638992715843466 4.7990204334886730 7.8885361461832888 Te
atom 2.1266235285384507 10.9601444714615468 2.1266235285384507 Te
atom 1.6668981429397725 11.6722305551218923 8.4278363780674184 Te
atom 8.0376589517131833 4.8618654142008344 1.4752211561303623 Te
atom 8.0790002587602547 5.0654924939744301 7.4357907467365338 Te
atom 7.9596934547045191 11.5680055313241539 1.4782538461328956 Te
atom 8.8231704736831595 11.9196722251858507 7.9344010691551281 Te
atom 4.7195900980652103 1.6713004379172065 2.1131884631075315 Te
atom 4.9108364207419406 1.4911526347067814 7.7655524264851969 Te
atom 5.3144600670892919 7.9555627305871734 1.4579927881133699 Te
atom 4.9770661163853491 8.4098758848680824 8.3701434731344797 Te
atom 11.7092924228280246 1.8306059844746150 1.2709266515045756 Te
atom 11.8438048906671227 1.6704836593481895 7.7841269954062113 Te
atom 11.7239819195824904 8.1712888359652407 1.3776519155532974 Te
atom 11.7745596755698418 8.1926838544826879 8.2275328558164134 Te
atom 5.1085924826794642 4.9075909232840544 4.8337724419571018 Te
atom 5.0266100924819321 4.9282115846287180 11.3880729444183366 Te
atom 4.9662022260514922 11.5870664745022047 4.8091737485534862 Te
atom 5.1264044323110163 11.1805616711501443 11.4958783516965415 Te
atom 11.5396180648272058 4.9906961841527133 5.2762497807664221 Te
atom 11.5086458777408911 5.1651153635487566 11.4600915356833664 Te
atom 11.5595291121915995 11.8953695735498304 4.7469231033308663 Te
atom 11.0722618437346618 11.6486366009234388 11.3780396954548841 Te
