vac_1_Cd[0. 0. 0.]_KV=-dNELECT=-2       
   1.00000000000000     
    13.0867679999999993    0.0000000000000000    0.0000000000000000
     0.0000000000000000   13.0867679999999993    0.0000000000000000
     0.0000000000000000    0.0000000000000000   13.0867679999999993
   Cd   Te
    31    32
Direct
 -0.0001244163112277  0.0000774889897470  0.5000580840478757
 -0.0001406967764931  0.5000876627709467  0.0000571119517867
 -0.0001489378056696  0.5000364574592350  0.4994427366559316
  0.4999285321480625  0.0000270742595611  0.0000592360069324
  0.5005133095956913  0.0001105024049843  0.5001396238066772
  0.5001123311202128  0.4996467699309763 -0.0003150219278742
  0.4999344261287360  0.5000354081455534  0.5000455251865951
 -0.0071877816794049  0.2442026463667950  0.2442077413711458
  0.0073772603941054  0.2445522911301054  0.7555094684279426
  0.0072135857316102  0.7558230354395566  0.2442598915235679
 -0.0073665505533684  0.7555600545012974  0.7555549075272251
  0.4991434920491847  0.2482711558294973  0.2482598483895072
  0.5006444427704733  0.2481785150738470  0.7518023452414611
  0.5008479965489271  0.7517372202962445  0.2483254721715582
  0.4990885505408343  0.7517205708143081  0.7517830583706558
  0.2444759854613801 -0.0073899024068986  0.2445163802236475
  0.2443751339235040  0.0073446307205547  0.7556251455018282
  0.2482857555229971  0.4991884583771333  0.2482940603224111
  0.2482081584533465  0.5008582552142397  0.7517847802289434
  0.7557247844615168  0.0072577056427597  0.2442827698279312
  0.7557864250664112 -0.0071488124458515  0.7558653432634415
  0.7516619827312986  0.5009184907716240  0.2482764865973144
  0.7516731209580816  0.4991233649748417  0.7517797128559708
  0.2441193513893959  0.2441644372867255 -0.0071226469121223
  0.2482155505102945  0.2483143187070219  0.4991244284053917
  0.2444409372836427  0.7555577014692590  0.0073941099090532
  0.2482662689499407  0.7517648530248354  0.5009165961469277
  0.7556321921697575  0.2443735624447350  0.0073049849612622
  0.7517116397849286  0.2483636972961533  0.5009355562564841
  0.7556533370980397  0.7557579672660026 -0.0072093908440463
  0.7517345144074720  0.7517985204324081  0.4992416391231246
  0.1244240351148081  0.1244112994324580  0.3731622974120756
  0.1155778600678079  0.1157058124327431  0.8842226464099600
  0.1247456450042245  0.6255422841538280  0.3744843107834585
  0.1244142868163920  0.6268467270458576  0.8755953680983354
  0.6255191464584680  0.1247916893912652  0.3745580333273774
  0.6268231512038166  0.1244484386522742  0.8755971750674373
  0.6254447222259641  0.6254378429931450  0.3746432545046213
  0.6253850000810467  0.6253927058917595  0.8752523500911946
  0.1243965318918805  0.3731645751699427  0.1244528615074154
  0.1247906209025146  0.3749959036061554  0.6250399301394055
  0.1157770584909250  0.8844073920116430  0.1157133616241805
  0.1244002818435625  0.8755652185226234  0.6268535604539556
  0.6254036018476595  0.3745843188809936  0.1247386289256842
  0.6252772518592068  0.3745344729932174  0.6255553281960423
  0.6268194835364344  0.8755979504066497  0.1244491629247874
  0.6255326497030858  0.8752777326473971  0.6255976878761448
  0.3731465464144216  0.1244167997834499  0.1244753371028384
  0.3745911012015006  0.1245909062772895  0.6252581578228448
  0.3749243179412569  0.6251167903010584  0.1248080263732900
  0.3745755783308850  0.6253900307585526  0.6254464302864151
  0.8842406469030503  0.1156891937910978  0.1156020370637020
  0.8755433517735214  0.1244985034639108  0.6268842907338811
  0.8755066030497518  0.6268829304916869  0.1244675676612803
  0.8751293576348833  0.6250976683805288  0.6251236314345429
  0.3746171107861725  0.3745612649996101  0.3745628420408438
  0.3743732673110343  0.3744518468745278  0.8752835407051955
  0.3749721386259302  0.8752222388258154  0.3749747714773494
  0.3731559567304308  0.8755696380091322  0.8755934348111958
  0.8751487761996191  0.3745044467075787  0.3743620456749572
  0.8755833655660819  0.3731592858714601  0.8755631781723872
  0.8755526234686222  0.8755950701970092  0.3731803943329301
  0.8844072489413600  0.8842349188471392  0.8842983723457216
 
  0.00000000E+00  0.00000000E+00  0.00000000E+00
  0.00000000E+00  0.00000000E+00  0.00000000E+00
  0.00000000E+00  0.00000000E+00  0.00000000E+00
  0.00000000E+00  0.00000000E+00  0.00000000E+00
  0.00000000E+00  0.00000000E+00  0.00000000E+00
  0.00000000E+00  0.00000000E+00  0.00000000E+00
  0.00000000E+00  0.00000000E+00  0.00000000E+00
  0.00000000E+00  0.00000000E+00  0.00000000E+00
  0.00000000E+00  0.00000000E+00  0.00000000E+00
  0.00000000E+00  0.00000000E+00  0.00000000E+00
  0.00000000E+00  0.00000000E+00  0.00000000E+00
  0.00000000E+00  0.00000000E+00  0.00000000E+00
  0.00000000E+00  0.00000000E+00  0.00000000E+00
  0.00000000E+00  0.00000000E+00  0.00000000E+00
  0.00000000E+00  0.00000000E+00  0.00000000E+00
  0.00000000E+00  0.00000000E+00  0.00000000E+00
  0.00000000E+00  0.00000000E+00  0.00000000E+00
  0.00000000E+00  0.00000000E+00  0.00000000E+00
  0.00000000E+00  0.00000000E+00  0.00000000E+00
  0.00000000E+00  0.00000000E+00  0.00000000E+00
  0.00000000E+00  0.00000000E+00  0.00000000E+00
  0.00000000E+00  0.00000000E+00  0.00000000E+00
  0.00000000E+00  0.00000000E+00  0.00000000E+00
  0.00000000E+00  0.00000000E+00  0.00000000E+00
  0.00000000E+00  0.00000000E+00  0.00000000E+00
  0.00000000E+00  0.00000000E+00  0.00000000E+00
  0.00000000E+00  0.00000000E+00  0.00000000E+00
  0.00000000E+00  0.00000000E+00  0.00000000E+00
  0.00000000E+00  0.00000000E+00  0.00000000E+00
  0.00000000E+00  0.00000000E+00  0.00000000E+00
  0.00000000E+00  0.00000000E+00  0.00000000E+00
  0.00000000E+00  0.00000000E+00  0.00000000E+00
  0.00000000E+00  0.00000000E+00  0.00000000E+00
  0.00000000E+00  0.00000000E+00  0.00000000E+00
  0.00000000E+00  0.00000000E+00  0.00000000E+00
  0.00000000E+00  0.00000000E+00  0.00000000E+00
  0.00000000E+00  0.00000000E+00  0.00000000E+00
  0.00000000E+00  0.00000000E+00  0.00000000E+00
  0.00000000E+00  0.00000000E+00  0.00000000E+00
  0.00000000E+00  0.00000000E+00  0.00000000E+00
  0.00000000E+00  0.00000000E+00  0.00000000E+00
  0.00000000E+00  0.00000000E+00  0.00000000E+00
  0.00000000E+00  0.00000000E+00  0.00000000E+00
  0.00000000E+00  0.00000000E+00  0.00000000E+00
  0.00000000E+00  0.00000000E+00  0.00000000E+00
  0.00000000E+00  0.00000000E+00  0.00000000E+00
  0.00000000E+00  0.00000000E+00  0.00000000E+00
  0.00000000E+00  0.00000000E+00  0.00000000E+00
  0.00000000E+00  0.00000000E+00  0.00000000E+00
  0.00000000E+00  0.00000000E+00  0.00000000E+00
  0.00000000E+00  0.00000000E+00  0.00000000E+00
  0.00000000E+00  0.00000000E+00  0.00000000E+00
  0.00000000E+00  0.00000000E+00  0.00000000E+00
  0.00000000E+00  0.00000000E+00  0.00000000E+00
  0.00000000E+00  0.00000000E+00  0.00000000E+00
  0.00000000E+00  0.00000000E+00  0.00000000E+00
  0.00000000E+00  0.00000000E+00  0.00000000E+00
  0.00000000E+00  0.00000000E+00  0.00000000E+00
  0.00000000E+00  0.00000000E+00  0.00000000E+00
  0.00000000E+00  0.00000000E+00  0.00000000E+00
  0.00000000E+00  0.00000000E+00  0.00000000E+00
  0.00000000E+00  0.00000000E+00  0.00000000E+00
  0.00000000E+00  0.00000000E+00  0.00000000E+00
