-7.5%_Bond__vac_1_Cd[0. 0. 0.]_-dNELECT=
   1.0000000000000000     
    13.0867679999999993    0.0000000000000000    0.0000000000000000
     0.0000000000000000   13.0867679999999993    0.0000000000000000
     0.0000000000000000    0.0000000000000000   13.0867679999999993
   Cd   Te
    31    32
Direct
  0.0035456286597007  0.0046344867982369  0.4960594605600441
  0.0037081338170387  0.5046112597824189 -0.0039703049814437
  0.0032557272187824  0.5042540271771633  0.4957190447388424
  0.5033235081621273  0.0044216854652563  0.9958594403868612
  0.5036491187176515  0.0038619971508907  0.4958350983037517
  0.5035618500601358  0.5036929534007398  0.9958153240914219
  0.5033037721792299  0.5043653119842878  0.4958709271167192
  0.9961878172566225  0.2499955452054236  0.2415734354878105
  0.0107566736220294  0.2505134285841077  0.7500978730020493
  0.0114648197503671  0.7586631179269857  0.2417443256774404
  0.9960917981737155  0.7582889979013809  0.7500376472280716
  0.5028189165905281  0.2521337434105074  0.2441392156424766
  0.5046451372605995  0.2516991103730111  0.7477654968326700
  0.5045497451224094  0.7558636085606384  0.2440331168230659
  0.5027567814794540  0.7560480428700799  0.7478824501091089
  0.2468256838300569  0.9998152344086105  0.2416180880400021
  0.2469374218100675  0.0080905365627516  0.7503702085255440
  0.2538915803612368  0.5040892965635522  0.2450376495315242
  0.2537985219892527  0.5042721317215467  0.7468606621235426
  0.7604795597529792  0.0079264564324700  0.2413001695811675
  0.7604877886655483 -0.0000572133960264  0.7501329295696182
  0.7535514973276269  0.5043921874669366  0.2447118179318302
  0.7530298452983913  0.5040529989439213  0.7468302518241080
  0.2469606016499067  0.2502844845031891  0.9925376453455355
  0.2536185480320300  0.2530032596850098  0.4954771544918049
  0.2469152113435321  0.7583175567657411  0.0002290839926073
  0.2535341775040597  0.7554798903676868  0.4964857928381765
  0.7605914806484513  0.2501947708980349  0.9995102012315100
  0.7530642526608698  0.2529575834532557  0.4964314367854122
  0.7603650780528025  0.7585346982990118 -0.0079393987943956
  0.7535211424201196  0.7554037415323667  0.4952418397026214
  0.1280766084622771  0.1298636832768602  0.3697154678872226
  0.1193156012043398  0.1211394016268712  0.8795399052344700
  0.1297154721924488  0.6293639982720353  0.3710983809659669
  0.1283107273313027  0.6301586199143143  0.8701016433433371
  0.6292193924875309  0.1279954086555612  0.3693065233270820
  0.6312491318250151  0.1280755566570156  0.8719238388992202
  0.6279346306994481  0.6296251342976883  0.3702921022150435
  0.6289100997566502  0.6307548242792650  0.8720636113361332
  0.1280043312675449  0.3786394676172825  0.1218351964853059
  0.1296500317903843  0.3794281649932044  0.6204763582402838
  0.1189965827217579  0.8882387081245310  0.1117612817146907
  0.1278736102671942  0.8788500318365587  0.6220363429846495
  0.6292030095189212  0.3774994586019994  0.1199172211287039
  0.6274347577769765  0.3787236485434928  0.6214345255501305
  0.6308652741624475  0.8802919135299730  0.1198178330672682
  0.6291742600711616  0.8800249273354052  0.6223438537697278
  0.3760400520659842  0.1282717123905476  0.1201290783917035
  0.3780597151882185  0.1281333917064453  0.6222413603903836
  0.3784031036564149  0.6304387719921142  0.1199119996400643
  0.3792395127049836  0.6299634246868419  0.6214519780394065
  0.8882189634604899  0.1205670264671876  0.1117499139249140
  0.8790187446792536  0.1300997006997424  0.6220285275057718
  0.8792987108382442  0.6304192925897325  0.1216905706563291
  0.8773264638537777  0.6292621331938036  0.6207015293106819
  0.3793974791204269  0.3786569505854444  0.3703443202804351
  0.3781660022744873  0.3772920493681038  0.8715545046540106
  0.3782113490323960  0.8799494387544564  0.3694208516162794
  0.3760393531419148  0.8801731887474020  0.8719541690340328
  0.8772935193193061  0.3790033227060175  0.3709381453389511
  0.8791677589810744  0.3789169704453312  0.8701296380634562
  0.8793690865160890  0.8788649360791648  0.3698468321295476
  0.8882198442142311  0.8879538112264199  0.8796444111353164

  0.00000000E+00  0.00000000E+00  0.00000000E+00
  0.00000000E+00  0.00000000E+00  0.00000000E+00
  0.00000000E+00  0.00000000E+00  0.00000000E+00
  0.00000000E+00  0.00000000E+00  0.00000000E+00
  0.00000000E+00  0.00000000E+00  0.00000000E+00
  0.00000000E+00  0.00000000E+00  0.00000000E+00
  0.00000000E+00  0.00000000E+00  0.00000000E+00
  0.00000000E+00  0.00000000E+00  0.00000000E+00
  0.00000000E+00  0.00000000E+00  0.00000000E+00
  0.00000000E+00  0.00000000E+00  0.00000000E+00
  0.00000000E+00  0.00000000E+00  0.00000000E+00
  0.00000000E+00  0.00000000E+00  0.00000000E+00
  0.00000000E+00  0.00000000E+00  0.00000000E+00
  0.00000000E+00  0.00000000E+00  0.00000000E+00
  0.00000000E+00  0.00000000E+00  0.00000000E+00
  0.00000000E+00  0.00000000E+00  0.00000000E+00
  0.00000000E+00  0.00000000E+00  0.00000000E+00
  0.00000000E+00  0.00000000E+00  0.00000000E+00
  0.00000000E+00  0.00000000E+00  0.00000000E+00
  0.00000000E+00  0.00000000E+00  0.00000000E+00
  0.00000000E+00  0.00000000E+00  0.00000000E+00
  0.00000000E+00  0.00000000E+00  0.00000000E+00
  0.00000000E+00  0.00000000E+00  0.00000000E+00
  0.00000000E+00  0.00000000E+00  0.00000000E+00
  0.00000000E+00  0.00000000E+00  0.00000000E+00
  0.00000000E+00  0.00000000E+00  0.00000000E+00
  0.00000000E+00  0.00000000E+00  0.00000000E+00
  0.00000000E+00  0.00000000E+00  0.00000000E+00
  0.00000000E+00  0.00000000E+00  0.00000000E+00
  0.00000000E+00  0.00000000E+00  0.00000000E+00
  0.00000000E+00  0.00000000E+00  0.00000000E+00
  0.00000000E+00  0.00000000E+00  0.00000000E+00
  0.00000000E+00  0.00000000E+00  0.00000000E+00
  0.00000000E+00  0.00000000E+00  0.00000000E+00
  0.00000000E+00  0.00000000E+00  0.00000000E+00
  0.00000000E+00  0.00000000E+00  0.00000000E+00
  0.00000000E+00  0.00000000E+00  0.00000000E+00
  0.00000000E+00  0.00000000E+00  0.00000000E+00
  0.00000000E+00  0.00000000E+00  0.00000000E+00
  0.00000000E+00  0.00000000E+00  0.00000000E+00
  0.00000000E+00  0.00000000E+00  0.00000000E+00
  0.00000000E+00  0.00000000E+00  0.00000000E+00
  0.00000000E+00  0.00000000E+00  0.00000000E+00
  0.00000000E+00  0.00000000E+00  0.00000000E+00
  0.00000000E+00  0.00000000E+00  0.00000000E+00
  0.00000000E+00  0.00000000E+00  0.00000000E+00
  0.00000000E+00  0.00000000E+00  0.00000000E+00
  0.00000000E+00  0.00000000E+00  0.00000000E+00
  0.00000000E+00  0.00000000E+00  0.00000000E+00
  0.00000000E+00  0.00000000E+00  0.00000000E+00
  0.00000000E+00  0.00000000E+00  0.00000000E+00
  0.00000000E+00  0.00000000E+00  0.00000000E+00
  0.00000000E+00  0.00000000E+00  0.00000000E+00
  0.00000000E+00  0.00000000E+00  0.00000000E+00
  0.00000000E+00  0.00000000E+00  0.00000000E+00
  0.00000000E+00  0.00000000E+00  0.00000000E+00
  0.00000000E+00  0.00000000E+00  0.00000000E+00
  0.00000000E+00  0.00000000E+00  0.00000000E+00
  0.00000000E+00  0.00000000E+00  0.00000000E+00
  0.00000000E+00  0.00000000E+00  0.00000000E+00
  0.00000000E+00  0.00000000E+00  0.00000000E+00
  0.00000000E+00  0.00000000E+00  0.00000000E+00
  0.00000000E+00  0.00000000E+00  0.00000000E+00
