20.0%__num_neighbours=1__Vac_O_mult32   
   1.0000000000000000     
     0.0000000000000000   10.7468629999999994    0.0000000000000000
   -10.7468629999999994    0.0000000000000000    0.0000000000000000
     0.0000000000000000    0.0000000000000000    9.7925889999999995
   Sr   Cu   O 
    16    32    31
Direct
  0.0005080393440033  0.2317060500074509  0.2470222476352066
  0.5017646597895765  0.2444058221367079  0.2474900687458964
  0.0005829565245407  0.7578644665062221  0.2472176555887088
  0.5018388893611589  0.7453373872309567  0.2477010412414919
  0.2520176768177022 -0.0053257821700198  0.7467036085472749
  0.7509596006021386 -0.0049989015744914  0.7472187620726622
  0.2542406164034537  0.4947763642367168  0.7458606422116463
  0.7493322595858674  0.4950899078220544  0.7475549034581316
  0.0010713041117464  0.4949299490934023  0.5082931384305808
  0.5016250305541583  0.4949103619934310  0.4962010725370362
  0.0015423451635475 -0.0049425992121859  0.5001495418378359
  0.5015521218921967 -0.0049267635171565  0.4976786736043263
  0.2549807995838428  0.2458639866974688 -0.0043497690489800
  0.7483567871110127  0.2465922517503735 -0.0033880390194005
  0.2549491404043529  0.7434102338788706 -0.0040490444573129
  0.7482749865188963  0.7433828383953253 -0.0032363992242925
  0.2422989046469330  0.3739168968193495  0.3605800285200671
  0.7579322596073725  0.3726850684686036  0.3669845050530748
  0.2511765214879811  0.8691050891017436  0.3727154071458086
  0.7514926753876718  0.8701264074809841  0.3732574719529903
  0.5016115295474937  0.1196723217899189  0.8712708848528751
  0.0013220110214435  0.1194729573466587  0.8744760654770893
  0.5015266250231211  0.6197970131782343  0.8708694770316938
  0.0027168785169227  0.6149678972223908  0.8880787236318992
  0.3799253347976353  0.4947198032392753  0.1216244727145523
  0.9028243598569190  0.4947083440205906  0.0923877797459272
  0.3761371429408578  0.9947023554379880  0.1235809002599964
  0.8771676137961081 -0.0052823897345821  0.1158311509547643
  0.6271819466833303  0.2456350257793035  0.6226695762719088
  0.1276740646500769  0.2450138919961301  0.6194402754637244
  0.6268014966418066  0.7446599338433204  0.6228936677916300
  0.1272753759442787  0.7444787691964773  0.6196588278301490
  0.2423973217092208  0.6157774877356885  0.3611121641414269
  0.7578999155400515  0.6189334978152145  0.3677462053994844
  0.2511191598207204  0.1209744326924677  0.3724931482961767
  0.7513851687836894  0.1215781021361870  0.3736106053138966
  0.5016983117473771  0.3692303464883800  0.8707151880089764
  0.0027787240726110  0.3753303664771857  0.8880296616174814
  0.5015697671240588  0.8692559033318600  0.8713163840513442
  0.0014132583000420  0.8710916703260652  0.8750141096059249
  0.1183347270574346  0.4945959174955217  0.1150880032035601
  0.6290812837605170  0.4947761500447693  0.1255607601423506
  0.1261268221098119 -0.0052962230079057  0.1163878803698962
  0.6263807528588136 -0.0051207775867176  0.1236064848360626
  0.3775169712591199  0.2449752259833470  0.6228915796080597
  0.8767128415368661  0.2451726551710908  0.6202189103477905
  0.3771150334090376  0.7444571963229503  0.6228493275393060
  0.8763163306085492  0.7446876931299276  0.6200628699461596
  0.5028366185728668  0.4948068798812238  0.2497803740607172
  0.0014111388572488 -0.0052930391060890  0.2440732724582058
  0.5011844443786324  0.9947662075815827  0.2487442209730767
  0.2507314314627885  0.2452457371080994  0.7465009401863467
  0.7534293402565185  0.2458745585901631  0.7471147527269425
  0.2504559393745443  0.7435681806667059  0.7465495599706151
  0.7531554444265528  0.7441267979555899  0.7472102222945565
  0.0015995693970265  0.2423827349732923  0.0016666423968420
  0.5019448219710112  0.2445474294249239 -0.0026830766971499
  0.0013319666434766  0.7478361284084047  0.0018090403393222
  0.5016542404739061  0.7444581500155185 -0.0025245479094653
  0.2509172191323283 -0.0048826066719256  0.4969834099826250
  0.7520872530108335 -0.0042909895376610  0.4978499559767777
  0.2433757909074727  0.4946885366119545  0.4909893584468434
  0.7584923187814194  0.4954954090952492  0.4948438918861308
  0.0019559847655862  0.2477367066881573  0.4949731506629228
  0.5020999078337005  0.2463500501807204  0.4968048614202831
  0.0017295755701747  0.7424031943472276  0.4950707829469889
  0.5018021197052019  0.7435959037932963  0.4969309462362804
  0.2536076648133716 -0.0052134615168401 -0.0047291804163222
  0.7490929082795544 -0.0049246924887280  0.9956043682375719
  0.2570716767713188  0.4946556726448304 -0.0049360238868397
  0.7503527452762327  0.4949607754756921  0.9970235451204680
  0.0032300897062058  0.4951522307089642  0.7548763332520432
  0.5016710937814474  0.4946077291853920  0.7450474004249817
  0.0014237514074882 -0.0049530150983645  0.7477036456284368
  0.5010684707619714 -0.0055410651254698  0.7461516139627914
  0.2479981109782605  0.2435176301098924  0.2438719362093197
  0.7541657386653219  0.2449924975548567  0.2459817564127957
  0.2478880843337821  0.7461312485662973  0.2444162846782031
  0.7540071956877148  0.7461668769595078  0.2461519607308530

  0.00000000E+00  0.00000000E+00  0.00000000E+00
  0.00000000E+00  0.00000000E+00  0.00000000E+00
  0.00000000E+00  0.00000000E+00  0.00000000E+00
  0.00000000E+00  0.00000000E+00  0.00000000E+00
  0.00000000E+00  0.00000000E+00  0.00000000E+00
  0.00000000E+00  0.00000000E+00  0.00000000E+00
  0.00000000E+00  0.00000000E+00  0.00000000E+00
  0.00000000E+00  0.00000000E+00  0.00000000E+00
  0.00000000E+00  0.00000000E+00  0.00000000E+00
  0.00000000E+00  0.00000000E+00  0.00000000E+00
  0.00000000E+00  0.00000000E+00  0.00000000E+00
  0.00000000E+00  0.00000000E+00  0.00000000E+00
  0.00000000E+00  0.00000000E+00  0.00000000E+00
  0.00000000E+00  0.00000000E+00  0.00000000E+00
  0.00000000E+00  0.00000000E+00  0.00000000E+00
  0.00000000E+00  0.00000000E+00  0.00000000E+00
  0.00000000E+00  0.00000000E+00  0.00000000E+00
  0.00000000E+00  0.00000000E+00  0.00000000E+00
  0.00000000E+00  0.00000000E+00  0.00000000E+00
  0.00000000E+00  0.00000000E+00  0.00000000E+00
  0.00000000E+00  0.00000000E+00  0.00000000E+00
  0.00000000E+00  0.00000000E+00  0.00000000E+00
  0.00000000E+00  0.00000000E+00  0.00000000E+00
  0.00000000E+00  0.00000000E+00  0.00000000E+00
  0.00000000E+00  0.00000000E+00  0.00000000E+00
  0.00000000E+00  0.00000000E+00  0.00000000E+00
  0.00000000E+00  0.00000000E+00  0.00000000E+00
  0.00000000E+00  0.00000000E+00  0.00000000E+00
  0.00000000E+00  0.00000000E+00  0.00000000E+00
  0.00000000E+00  0.00000000E+00  0.00000000E+00
  0.00000000E+00  0.00000000E+00  0.00000000E+00
  0.00000000E+00  0.00000000E+00  0.00000000E+00
  0.00000000E+00  0.00000000E+00  0.00000000E+00
  0.00000000E+00  0.00000000E+00  0.00000000E+00
  0.00000000E+00  0.00000000E+00  0.00000000E+00
  0.00000000E+00  0.00000000E+00  0.00000000E+00
  0.00000000E+00  0.00000000E+00  0.00000000E+00
  0.00000000E+00  0.00000000E+00  0.00000000E+00
  0.00000000E+00  0.00000000E+00  0.00000000E+00
  0.00000000E+00  0.00000000E+00  0.00000000E+00
  0.00000000E+00  0.00000000E+00  0.00000000E+00
  0.00000000E+00  0.00000000E+00  0.00000000E+00
  0.00000000E+00  0.00000000E+00  0.00000000E+00
  0.00000000E+00  0.00000000E+00  0.00000000E+00
  0.00000000E+00  0.00000000E+00  0.00000000E+00
  0.00000000E+00  0.00000000E+00  0.00000000E+00
  0.00000000E+00  0.00000000E+00  0.00000000E+00
  0.00000000E+00  0.00000000E+00  0.00000000E+00
  0.00000000E+00  0.00000000E+00  0.00000000E+00
  0.00000000E+00  0.00000000E+00  0.00000000E+00
  0.00000000E+00  0.00000000E+00  0.00000000E+00
  0.00000000E+00  0.00000000E+00  0.00000000E+00
  0.00000000E+00  0.00000000E+00  0.00000000E+00
  0.00000000E+00  0.00000000E+00  0.00000000E+00
  0.00000000E+00  0.00000000E+00  0.00000000E+00
  0.00000000E+00  0.00000000E+00  0.00000000E+00
  0.00000000E+00  0.00000000E+00  0.00000000E+00
  0.00000000E+00  0.00000000E+00  0.00000000E+00
  0.00000000E+00  0.00000000E+00  0.00000000E+00
  0.00000000E+00  0.00000000E+00  0.00000000E+00
  0.00000000E+00  0.00000000E+00  0.00000000E+00
  0.00000000E+00  0.00000000E+00  0.00000000E+00
  0.00000000E+00  0.00000000E+00  0.00000000E+00
  0.00000000E+00  0.00000000E+00  0.00000000E+00
  0.00000000E+00  0.00000000E+00  0.00000000E+00
  0.00000000E+00  0.00000000E+00  0.00000000E+00
  0.00000000E+00  0.00000000E+00  0.00000000E+00
  0.00000000E+00  0.00000000E+00  0.00000000E+00
  0.00000000E+00  0.00000000E+00  0.00000000E+00
  0.00000000E+00  0.00000000E+00  0.00000000E+00
  0.00000000E+00  0.00000000E+00  0.00000000E+00
  0.00000000E+00  0.00000000E+00  0.00000000E+00
  0.00000000E+00  0.00000000E+00  0.00000000E+00
  0.00000000E+00  0.00000000E+00  0.00000000E+00
  0.00000000E+00  0.00000000E+00  0.00000000E+00
  0.00000000E+00  0.00000000E+00  0.00000000E+00
  0.00000000E+00  0.00000000E+00  0.00000000E+00
  0.00000000E+00  0.00000000E+00  0.00000000E+00
  0.00000000E+00  0.00000000E+00  0.00000000E+00
