-30.0%_BDM_Distortion_vac_1_Cd[0. 0. 0.]
   1.00000000000000     
    13.0867679999999993    0.0000000000000000    0.0000000000000000
     0.0000000000000000   13.0867679999999993    0.0000000000000000
     0.0000000000000000    0.0000000000000000   13.0867679999999993
   Cd   Te
    31    32
Direct
  0.0019765525037376  0.9978774590864466  0.5088871082343165
  0.0023676150664439  0.4983097141250318  0.0088206237292675
  0.0009650607637520  0.4969896008562299  0.4899227682130661
  0.5023451121117947  0.9974640171601780  0.0095336342708649
  0.5012962596870439  0.9971281518007964  0.4904623200505917
  0.5009129620698543  0.4974295292866763 -0.0019465387030793
  0.5010710681300160  0.4967718657463858  0.4997144131144179
  0.0086849795077906  0.2350776854305641  0.2541748271151408
  0.0111592002189144  0.2418529804786783  0.7490058156206107
 -0.0066580861265307  0.7610999313039782  0.2519112360075619
  0.9922950334835237  0.7551337891639037  0.7499705880721972
  0.4983699579667913  0.2434306541808132  0.2469963546159385
  0.5010914445579318  0.2463921470064533  0.7485501609821475
  0.5047747196563818  0.7515430468829549  0.2478053688160664
  0.5012811896874363  0.7494274718696420  0.7462489968387273
  0.2386252358192486  0.0061476812457900  0.2519303730450563
  0.2447807059806574  0.0078248725095918  0.7500022130208723
  0.2458479252288837  0.4953643412947801  0.2469353472552370
  0.2493907705709947  0.4990871130716499  0.7465433225049467
  0.7639583713662325 -0.0102975757977901  0.2535150215873439
  0.7575172843344435  0.9890293948716261  0.7492714410336213
  0.7550173543433605  0.5004963190770684  0.2466168760981461
  0.7529956520185778  0.4979191982037610  0.7474808393359148
  0.2463305258556339  0.2436710263127772 -0.0138090182713052
  0.2597082060822262  0.2551290102049344  0.5060084996196232
  0.2778284107099078  0.7238150343450606  0.9678938503348344
  0.2503591587819976  0.7490854338418145  0.4952625464406084
  0.7273069628220177  0.2732553034367611  0.9667986480675611
  0.7509132264711436  0.2469174011924533  0.4968389273357236
  0.7555126219805397  0.7515488907759259 -0.0143530395230126
  0.7451039245503187  0.7399269551971731  0.5062528057086459
  0.1309921489031084  0.1266353690884882  0.3918037982101844
  0.1171380062958446  0.1145728071311382  0.8801289044717521
  0.1237933136779376  0.6282789876525025  0.3659483284179129
  0.1210317564463507  0.6218998825851741  0.8725200214884055
  0.6310673870567708  0.1208219560661887  0.3662745883195985
  0.6242531999009056  0.1166518466416303  0.8723387127292253
  0.6249669084440006  0.6204981619465693  0.3725196515691496
  0.6248280131450508  0.6216526228708882  0.8713826601303148
  0.1260846146752172  0.3658850638301647  0.1242449192772181
  0.1249819163814444  0.3765794977756403  0.6215032820909479
  0.0748722818067100  0.9248608614439581  0.1302725274114171
  0.1294154889220155  0.8705124420647079  0.6266607871669696
  0.6260460489072119  0.3725249478341699  0.1244203249895504
  0.6267782947115701  0.3717784705372003  0.6238831500811562
  0.6335659261771226  0.8716047860469365  0.1241549796456864
  0.6233620107939380  0.8745240421264557  0.6215059135818556
  0.3700725985270814  0.1234396658764489  0.1231201598885189
  0.3808578116192076  0.1211507728113385  0.6224870504992263
  0.3764532949781210  0.6224365095793002  0.1255736032738636
  0.3751577381386047  0.6242643222915020  0.6216455710917332
  0.9263187828160138  0.0729011967832946  0.1315169509891881
  0.8739642016880124  0.1257148342076659  0.6263392642444041
  0.8757209039976529  0.6291261996739904  0.1235679430389024
  0.8789767165545413  0.6187257658843540  0.6226940933794524
  0.3775578351878494  0.3749200231829932  0.3706711576538418
  0.3761966817010206  0.3741985489180838  0.8716493368762577
  0.3711076794938867  0.8749445190437610  0.3654603344486151
  0.3798254724628347  0.8798120439932162  0.8715931960819936
  0.8767633432844925  0.3673686916578146  0.3663298413447820
  0.8835980110390512  0.3758050056971001  0.8715651371932217
  0.8731108601595848  0.8688589452261718  0.3918615999640569
  0.8840623459057486  0.8815097653690535  0.8797998798789222
 
  0.00000000E+00  0.00000000E+00  0.00000000E+00
  0.00000000E+00  0.00000000E+00  0.00000000E+00
  0.00000000E+00  0.00000000E+00  0.00000000E+00
  0.00000000E+00  0.00000000E+00  0.00000000E+00
  0.00000000E+00  0.00000000E+00  0.00000000E+00
  0.00000000E+00  0.00000000E+00  0.00000000E+00
  0.00000000E+00  0.00000000E+00  0.00000000E+00
  0.00000000E+00  0.00000000E+00  0.00000000E+00
  0.00000000E+00  0.00000000E+00  0.00000000E+00
  0.00000000E+00  0.00000000E+00  0.00000000E+00
  0.00000000E+00  0.00000000E+00  0.00000000E+00
  0.00000000E+00  0.00000000E+00  0.00000000E+00
  0.00000000E+00  0.00000000E+00  0.00000000E+00
  0.00000000E+00  0.00000000E+00  0.00000000E+00
  0.00000000E+00  0.00000000E+00  0.00000000E+00
  0.00000000E+00  0.00000000E+00  0.00000000E+00
  0.00000000E+00  0.00000000E+00  0.00000000E+00
  0.00000000E+00  0.00000000E+00  0.00000000E+00
  0.00000000E+00  0.00000000E+00  0.00000000E+00
  0.00000000E+00  0.00000000E+00  0.00000000E+00
  0.00000000E+00  0.00000000E+00  0.00000000E+00
  0.00000000E+00  0.00000000E+00  0.00000000E+00
  0.00000000E+00  0.00000000E+00  0.00000000E+00
  0.00000000E+00  0.00000000E+00  0.00000000E+00
  0.00000000E+00  0.00000000E+00  0.00000000E+00
  0.00000000E+00  0.00000000E+00  0.00000000E+00
  0.00000000E+00  0.00000000E+00  0.00000000E+00
  0.00000000E+00  0.00000000E+00  0.00000000E+00
  0.00000000E+00  0.00000000E+00  0.00000000E+00
  0.00000000E+00  0.00000000E+00  0.00000000E+00
  0.00000000E+00  0.00000000E+00  0.00000000E+00
  0.00000000E+00  0.00000000E+00  0.00000000E+00
  0.00000000E+00  0.00000000E+00  0.00000000E+00
  0.00000000E+00  0.00000000E+00  0.00000000E+00
  0.00000000E+00  0.00000000E+00  0.00000000E+00
  0.00000000E+00  0.00000000E+00  0.00000000E+00
  0.00000000E+00  0.00000000E+00  0.00000000E+00
  0.00000000E+00  0.00000000E+00  0.00000000E+00
  0.00000000E+00  0.00000000E+00  0.00000000E+00
  0.00000000E+00  0.00000000E+00  0.00000000E+00
  0.00000000E+00  0.00000000E+00  0.00000000E+00
  0.00000000E+00  0.00000000E+00  0.00000000E+00
  0.00000000E+00  0.00000000E+00  0.00000000E+00
  0.00000000E+00  0.00000000E+00  0.00000000E+00
  0.00000000E+00  0.00000000E+00  0.00000000E+00
  0.00000000E+00  0.00000000E+00  0.00000000E+00
  0.00000000E+00  0.00000000E+00  0.00000000E+00
  0.00000000E+00  0.00000000E+00  0.00000000E+00
  0.00000000E+00  0.00000000E+00  0.00000000E+00
  0.00000000E+00  0.00000000E+00  0.00000000E+00
  0.00000000E+00  0.00000000E+00  0.00000000E+00
  0.00000000E+00  0.00000000E+00  0.00000000E+00
  0.00000000E+00  0.00000000E+00  0.00000000E+00
  0.00000000E+00  0.00000000E+00  0.00000000E+00
  0.00000000E+00  0.00000000E+00  0.00000000E+00
  0.00000000E+00  0.00000000E+00  0.00000000E+00
  0.00000000E+00  0.00000000E+00  0.00000000E+00
  0.00000000E+00  0.00000000E+00  0.00000000E+00
  0.00000000E+00  0.00000000E+00  0.00000000E+00
  0.00000000E+00  0.00000000E+00  0.00000000E+00
  0.00000000E+00  0.00000000E+00  0.00000000E+00
  0.00000000E+00  0.00000000E+00  0.00000000E+00
  0.00000000E+00  0.00000000E+00  0.00000000E+00
