50.0%__num_neighbours=1__Vac_O_mult32   
   1.0000000000000000     
     0.0000000000000000   10.7468629999999994    0.0000000000000000
   -10.7468629999999994    0.0000000000000000    0.0000000000000000
     0.0000000000000000    0.0000000000000000    9.7925889999999995
   Sr   Cu   O 
    16    32    31
Direct
  0.0023521635772852  0.2333086015800682  0.2457750375590236
  0.5016582732856887  0.2452580608602648  0.2466241353408032
  0.0022471239174331  0.7587209172117932  0.2463160301897465
  0.5017363372130128  0.7462090767515116  0.2469547694589485
  0.2524649721256683 -0.0044986680380708  0.7456380612181376
  0.7515143801870543 -0.0040266129183083  0.7457607632129701
  0.2545034930007111  0.4957734403948161  0.7455502946669279
  0.7491213800367895  0.4960458311453466  0.7451735678474494
  0.0017737530053664  0.4959242034166905  0.5076562282339624
  0.5023502716504670  0.4957614739714752  0.4953848941750285
  0.0019636951572462 -0.0036577680264597  0.4988687147534705
  0.5020739469332565 -0.0039424153990703  0.4966264741942393
  0.2557111513327673  0.2469240496048273 -0.0050081915220490
  0.7480630479987448  0.2472731001799334 -0.0050526556152055
  0.2555983285876312  0.7443758306735780 -0.0044430597666310
  0.7479280566807622  0.7450266322533982 -0.0045451119168720
  0.2446796526685114  0.3728330029979885  0.3648933481187296
  0.7598238706456024  0.3741832665247561  0.3620554105740145
  0.2519798010435180  0.8699406030280714  0.3722022770435905
  0.7522987639180169  0.8707632165977525  0.3717206034484618
  0.5018875607361885  0.1207294586086456  0.8699179220830455
  0.0020115505815619  0.1201859215122227  0.8736027913459246
  0.5017813521680713  0.6210364912428853  0.8696873130253845
  0.0012034435565457  0.6156495137089093  0.8882306915549415
  0.3766856703052471  0.4955397511917974  0.1233071930387742
  0.8920544690295539  0.4962596041295240  0.0993307508492881
  0.3764363355267286  0.9956731176089497  0.1224633424148613
  0.8773068715538822 -0.0037950987274126  0.1148084114649806
  0.6274828744758729  0.2461843977343992  0.6218919663334511
  0.1280495492386027  0.2460562896506028  0.6184255467076488
  0.6272124291316256  0.7457761967762460  0.6224039500881655
  0.1278782049672397  0.7454638850456868  0.6186017933158439
  0.2448027434027147  0.6181014883216591  0.3648688347026166
  0.7598086674828980  0.6181607550439173  0.3627874587139751
  0.2519220747236320  0.1215922077174146  0.3714776531357815
  0.7521983139299215  0.1220945812543432  0.3713708872504752
  0.5018871381825021  0.3700536014167675  0.8696162967277717
  0.0014209715346956  0.3768410758657295  0.8878692251890054
  0.5017572257427700  0.8703240820892333  0.8703231060570614
  0.0018846013737421  0.8720443652619307  0.8740967449233512
  0.1066148775912809  0.4956965406247156  0.0937447103996058
  0.6244772252202210  0.4958624623151341  0.1222255655248842
  0.1259081803550435 -0.0041777767800012  0.1142948596258432
  0.6266360487980236 -0.0038991841516082  0.1224260752819396
  0.3777621594518938  0.2460122486084412  0.6219817134103075
  0.8773160474216600  0.2462029811188851  0.6190683271050971
  0.3774890067375090  0.7451765584037986  0.6218224529652074
  0.8769662264158614  0.7459023863577210  0.6192327628668440
  0.5010573173920773  0.4954588401292442  0.2495901490189797
  0.0017861399222300 -0.0040931070964688  0.2427782827718517
  0.5015372358742505  0.9956049677181176  0.2476537393768529
  0.2509430917660398  0.2460739746050368  0.7457139028213587
  0.7540473184330135  0.2467403891910647  0.7458147272853156
  0.2508581376266668  0.7446866676990188  0.7458848826130878
  0.7538514615870642  0.7454961853918537  0.7462702617670270
  0.0022910752759187  0.2432380839686528  0.0005174159815047
  0.5021473396242203  0.2453646686334561 -0.0036986667629953
  0.0018476099544519  0.7490956158380995  0.0010588103945007
  0.5018299157806653  0.7456263619759441 -0.0034266959491253
  0.2513313825167851 -0.0039785730147498  0.4961552457195070
  0.7524734124673093 -0.0034806451246530  0.4961135985356645
  0.2438820969156905  0.4954878404111944  0.4928425874248389
  0.7591224648511269  0.4958520587776798  0.4912855366566599
  0.0023442765118674  0.2488649868575786  0.4937926185597484
  0.5026007643386756  0.2469548041514755  0.4959844252408964
  0.0020947884009351  0.7430461842812093  0.4940523393794733
  0.5026030751122027  0.7442987430926081  0.4961699018350902
  0.2540212313019126 -0.0043769662669302 -0.0059841843290617
  0.7493841694380651 -0.0032175415305541  0.9942881603388466
  0.2563674816672763  0.4955649277930290 -0.0059473688583164
  0.7453067856748800  0.4962461493354667  0.9935736918905644
  0.0008282125957867  0.4963531156743883  0.7542861357936391
  0.5015744872573831  0.4955949297033767  0.7440860670822564
  0.0016400648349608 -0.0040803226705556  0.7465998014212213
  0.5016410185256028 -0.0046276326373175  0.7449686970302228
  0.2494087510616786  0.2451341101700331  0.2440528729238795
  0.7556726704906394  0.2450991917713845  0.2433203602561143
  0.2494766320102720  0.7462346906085709  0.2447082849269535
  0.7557013081893493  0.7473445558018526  0.2440744815366349

  0.00000000E+00  0.00000000E+00  0.00000000E+00
  0.00000000E+00  0.00000000E+00  0.00000000E+00
  0.00000000E+00  0.00000000E+00  0.00000000E+00
  0.00000000E+00  0.00000000E+00  0.00000000E+00
  0.00000000E+00  0.00000000E+00  0.00000000E+00
  0.00000000E+00  0.00000000E+00  0.00000000E+00
  0.00000000E+00  0.00000000E+00  0.00000000E+00
  0.00000000E+00  0.00000000E+00  0.00000000E+00
  0.00000000E+00  0.00000000E+00  0.00000000E+00
  0.00000000E+00  0.00000000E+00  0.00000000E+00
  0.00000000E+00  0.00000000E+00  0.00000000E+00
  0.00000000E+00  0.00000000E+00  0.00000000E+00
  0.00000000E+00  0.00000000E+00  0.00000000E+00
  0.00000000E+00  0.00000000E+00  0.00000000E+00
  0.00000000E+00  0.00000000E+00  0.00000000E+00
  0.00000000E+00  0.00000000E+00  0.00000000E+00
  0.00000000E+00  0.00000000E+00  0.00000000E+00
  0.00000000E+00  0.00000000E+00  0.00000000E+00
  0.00000000E+00  0.00000000E+00  0.00000000E+00
  0.00000000E+00  0.00000000E+00  0.00000000E+00
  0.00000000E+00  0.00000000E+00  0.00000000E+00
  0.00000000E+00  0.00000000E+00  0.00000000E+00
  0.00000000E+00  0.00000000E+00  0.00000000E+00
  0.00000000E+00  0.00000000E+00  0.00000000E+00
  0.00000000E+00  0.00000000E+00  0.00000000E+00
  0.00000000E+00  0.00000000E+00  0.00000000E+00
  0.00000000E+00  0.00000000E+00  0.00000000E+00
  0.00000000E+00  0.00000000E+00  0.00000000E+00
  0.00000000E+00  0.00000000E+00  0.00000000E+00
  0.00000000E+00  0.00000000E+00  0.00000000E+00
  0.00000000E+00  0.00000000E+00  0.00000000E+00
  0.00000000E+00  0.00000000E+00  0.00000000E+00
  0.00000000E+00  0.00000000E+00  0.00000000E+00
  0.00000000E+00  0.00000000E+00  0.00000000E+00
  0.00000000E+00  0.00000000E+00  0.00000000E+00
  0.00000000E+00  0.00000000E+00  0.00000000E+00
  0.00000000E+00  0.00000000E+00  0.00000000E+00
  0.00000000E+00  0.00000000E+00  0.00000000E+00
  0.00000000E+00  0.00000000E+00  0.00000000E+00
  0.00000000E+00  0.00000000E+00  0.00000000E+00
  0.00000000E+00  0.00000000E+00  0.00000000E+00
  0.00000000E+00  0.00000000E+00  0.00000000E+00
  0.00000000E+00  0.00000000E+00  0.00000000E+00
  0.00000000E+00  0.00000000E+00  0.00000000E+00
  0.00000000E+00  0.00000000E+00  0.00000000E+00
  0.00000000E+00  0.00000000E+00  0.00000000E+00
  0.00000000E+00  0.00000000E+00  0.00000000E+00
  0.00000000E+00  0.00000000E+00  0.00000000E+00
  0.00000000E+00  0.00000000E+00  0.00000000E+00
  0.00000000E+00  0.00000000E+00  0.00000000E+00
  0.00000000E+00  0.00000000E+00  0.00000000E+00
  0.00000000E+00  0.00000000E+00  0.00000000E+00
  0.00000000E+00  0.00000000E+00  0.00000000E+00
  0.00000000E+00  0.00000000E+00  0.00000000E+00
  0.00000000E+00  0.00000000E+00  0.00000000E+00
  0.00000000E+00  0.00000000E+00  0.00000000E+00
  0.00000000E+00  0.00000000E+00  0.00000000E+00
  0.00000000E+00  0.00000000E+00  0.00000000E+00
  0.00000000E+00  0.00000000E+00  0.00000000E+00
  0.00000000E+00  0.00000000E+00  0.00000000E+00
  0.00000000E+00  0.00000000E+00  0.00000000E+00
  0.00000000E+00  0.00000000E+00  0.00000000E+00
  0.00000000E+00  0.00000000E+00  0.00000000E+00
  0.00000000E+00  0.00000000E+00  0.00000000E+00
  0.00000000E+00  0.00000000E+00  0.00000000E+00
  0.00000000E+00  0.00000000E+00  0.00000000E+00
  0.00000000E+00  0.00000000E+00  0.00000000E+00
  0.00000000E+00  0.00000000E+00  0.00000000E+00
  0.00000000E+00  0.00000000E+00  0.00000000E+00
  0.00000000E+00  0.00000000E+00  0.00000000E+00
  0.00000000E+00  0.00000000E+00  0.00000000E+00
  0.00000000E+00  0.00000000E+00  0.00000000E+00
  0.00000000E+00  0.00000000E+00  0.00000000E+00
  0.00000000E+00  0.00000000E+00  0.00000000E+00
  0.00000000E+00  0.00000000E+00  0.00000000E+00
  0.00000000E+00  0.00000000E+00  0.00000000E+00
  0.00000000E+00  0.00000000E+00  0.00000000E+00
  0.00000000E+00  0.00000000E+00  0.00000000E+00
  0.00000000E+00  0.00000000E+00  0.00000000E+00
