-42.5%_Bond__vac_1_Cd[0. 0. 0.]_-dNELECT
   1.0000000000000000     
    13.0867679999999993    0.0000000000000000    0.0000000000000000
     0.0000000000000000   13.0867679999999993    0.0000000000000000
     0.0000000000000000    0.0000000000000000   13.0867679999999993
   Cd   Te
    31    32
Direct
  0.0132763457706073  0.0041912497564951  0.4960466322572156
  0.0133357195636489  0.5043928150990816 -0.0039795065018189
  0.0022678930889121  0.5040832525545216  0.4957855665953019
  0.5139429342730000  0.0042648831514948  0.9959721566723549
  0.4945809423892251  0.0041291762384102  0.4957273396409225
  0.4946137959769983  0.5042179970136718  0.9959014906313838
  0.5031909635823093  0.5042278075745904  0.4958931484441558
  0.9894651892792100  0.2498742487182939  0.2417584724101496
  0.9720310606949655  0.2791089507643143  0.7209344361110281
  0.9721026378569954  0.7293320923000373  0.2710643321644057
  0.9891203098500501  0.7583697573120234  0.7498956558926869
  0.5107291065673198  0.2616327971783449  0.2531964805285364
  0.4995637706706200  0.2534333718560793  0.7465675151443936
  0.4995415395338473  0.7547369811867614  0.2452987687101842
  0.5105484655243532  0.7466466229803996  0.7384895821457145
  0.2569624909036961  0.0124038450733463  0.2330594221184825
  0.2574870636183688 -0.0040828220916415  0.7585861476533364
  0.2512507041021716  0.5011446607986549  0.2411849330702527
  0.2509829904882231  0.5072063463778843  0.7505411822240413
  0.7539410374824814  0.0135875106942652  0.2391459733782259
  0.7536472048948658 -0.0050677770752881  0.7526652545334557
  0.7514461070475338  0.5048669092200702  0.2444299694288330
  0.7511564803137396  0.5035310176058267  0.7474343388239733
  0.2573107107745270  0.2414606374645552  0.0041238830893592
  0.2511449532484369  0.2498485857747701  0.4927392132563550
  0.2568553633155267  0.7671588647827526  0.9874738990969647
  0.2510471950503420  0.7587937210788912  0.4990726548201879
  0.7538606726485045  0.2477291336683788  0.0051154975589109
  0.7509587172017814  0.2524733089773780  0.4967744362951220
  0.7536613270273276  0.7610460563029713 -0.0131686307410478
  0.7511455766335610  0.7559509450185636  0.4952457661414512
  0.1275061449718973  0.1297342694163815  0.3641271048973921
  0.1355929874646600  0.0785816053927719  0.9213562490834438
  0.1295117211398596  0.6289510681289836  0.3710922779396884
  0.1273428402918329  0.6361509888638467  0.8702026431369204
  0.6265211570721601  0.1272473663952742  0.3746513255895944
  0.6305757613822000  0.1323457605188103  0.8679446254792890
  0.6263357522679930  0.6302999582027643  0.3697456751254828
  0.6265294608747003  0.6253611317113162  0.8728462708714421
  0.1274654355034962  0.3722796961902618  0.1213333587424192
  0.1294607995410053  0.3795041509595447  0.6205719584346493
  0.1352160365566587  0.9302574908997667  0.0698233627904976
  0.1274849817175427  0.8787020237923726  0.6278912805064000
  0.6265792602105399  0.3832552685317062  0.1189374577390682
  0.6261926534615316  0.3781462808063034  0.6220251226721411
  0.6305204787690790  0.8762782979370380  0.1240537945302582
  0.6262728732444510  0.8811909758369914  0.6170216259200337
  0.3963348734510701  0.1329226685347908  0.1248394488340295
  0.3702496576589969  0.1272279137179892  0.6257707979631605
  0.3701512749819449  0.6344363139898965  0.1186330282254378
  0.3755781418759963  0.6275912575270516  0.6194265616445371
  0.8841102895073959  0.1206271313411615  0.1120931288257206
  0.8761778121518797  0.1229141476581035  0.6187633955503905
  0.8764465538662031  0.6272672861124888  0.1147432809884643
  0.8750963928907386  0.6279016832017407  0.6195508529521444
  0.3757236796520061  0.3807802282603915  0.3723328868823946
  0.3702394144155284  0.3741385464571790  0.8729363820834894
  0.3700864325689308  0.8811639489794797  0.3657610805471938
  0.3965793908634312  0.8753531195146430  0.8671926160459446
  0.8752106055118917  0.3801537055750855  0.3722368821128041
  0.8764039807412185  0.3815489187510123  0.8771469698260750
  0.8764496056904109  0.8855768040553504  0.3731141471328666
  0.8839792803296233  0.8878610453836037  0.8795583953321283

  0.00000000E+00  0.00000000E+00  0.00000000E+00
  0.00000000E+00  0.00000000E+00  0.00000000E+00
  0.00000000E+00  0.00000000E+00  0.00000000E+00
  0.00000000E+00  0.00000000E+00  0.00000000E+00
  0.00000000E+00  0.00000000E+00  0.00000000E+00
  0.00000000E+00  0.00000000E+00  0.00000000E+00
  0.00000000E+00  0.00000000E+00  0.00000000E+00
  0.00000000E+00  0.00000000E+00  0.00000000E+00
  0.00000000E+00  0.00000000E+00  0.00000000E+00
  0.00000000E+00  0.00000000E+00  0.00000000E+00
  0.00000000E+00  0.00000000E+00  0.00000000E+00
  0.00000000E+00  0.00000000E+00  0.00000000E+00
  0.00000000E+00  0.00000000E+00  0.00000000E+00
  0.00000000E+00  0.00000000E+00  0.00000000E+00
  0.00000000E+00  0.00000000E+00  0.00000000E+00
  0.00000000E+00  0.00000000E+00  0.00000000E+00
  0.00000000E+00  0.00000000E+00  0.00000000E+00
  0.00000000E+00  0.00000000E+00  0.00000000E+00
  0.00000000E+00  0.00000000E+00  0.00000000E+00
  0.00000000E+00  0.00000000E+00  0.00000000E+00
  0.00000000E+00  0.00000000E+00  0.00000000E+00
  0.00000000E+00  0.00000000E+00  0.00000000E+00
  0.00000000E+00  0.00000000E+00  0.00000000E+00
  0.00000000E+00  0.00000000E+00  0.00000000E+00
  0.00000000E+00  0.00000000E+00  0.00000000E+00
  0.00000000E+00  0.00000000E+00  0.00000000E+00
  0.00000000E+00  0.00000000E+00  0.00000000E+00
  0.00000000E+00  0.00000000E+00  0.00000000E+00
  0.00000000E+00  0.00000000E+00  0.00000000E+00
  0.00000000E+00  0.00000000E+00  0.00000000E+00
  0.00000000E+00  0.00000000E+00  0.00000000E+00
  0.00000000E+00  0.00000000E+00  0.00000000E+00
  0.00000000E+00  0.00000000E+00  0.00000000E+00
  0.00000000E+00  0.00000000E+00  0.00000000E+00
  0.00000000E+00  0.00000000E+00  0.00000000E+00
  0.00000000E+00  0.00000000E+00  0.00000000E+00
  0.00000000E+00  0.00000000E+00  0.00000000E+00
  0.00000000E+00  0.00000000E+00  0.00000000E+00
  0.00000000E+00  0.00000000E+00  0.00000000E+00
  0.00000000E+00  0.00000000E+00  0.00000000E+00
  0.00000000E+00  0.00000000E+00  0.00000000E+00
  0.00000000E+00  0.00000000E+00  0.00000000E+00
  0.00000000E+00  0.00000000E+00  0.00000000E+00
  0.00000000E+00  0.00000000E+00  0.00000000E+00
  0.00000000E+00  0.00000000E+00  0.00000000E+00
  0.00000000E+00  0.00000000E+00  0.00000000E+00
  0.00000000E+00  0.00000000E+00  0.00000000E+00
  0.00000000E+00  0.00000000E+00  0.00000000E+00
  0.00000000E+00  0.00000000E+00  0.00000000E+00
  0.00000000E+00  0.00000000E+00  0.00000000E+00
  0.00000000E+00  0.00000000E+00  0.00000000E+00
  0.00000000E+00  0.00000000E+00  0.00000000E+00
  0.00000000E+00  0.00000000E+00  0.00000000E+00
  0.00000000E+00  0.00000000E+00  0.00000000E+00
  0.00000000E+00  0.00000000E+00  0.00000000E+00
  0.00000000E+00  0.00000000E+00  0.00000000E+00
  0.00000000E+00  0.00000000E+00  0.00000000E+00
  0.00000000E+00  0.00000000E+00  0.00000000E+00
  0.00000000E+00  0.00000000E+00  0.00000000E+00
  0.00000000E+00  0.00000000E+00  0.00000000E+00
  0.00000000E+00  0.00000000E+00  0.00000000E+00
  0.00000000E+00  0.00000000E+00  0.00000000E+00
  0.00000000E+00  0.00000000E+00  0.00000000E+00
