-20.0%__num_neighbours=1__Vac_O_mult32  
   1.0000000000000000     
     0.0000000000000000   10.7468629999999994    0.0000000000000000
   -10.7468629999999994    0.0000000000000000    0.0000000000000000
     0.0000000000000000    0.0000000000000000    9.7925889999999995
   Sr   Cu   O 
    16    32    31
Direct
  0.0086975886795754  0.2324802311382332  0.2466780192818664
  0.5049137222837443  0.2446770209147236  0.2475316796145117
  0.0087539030841881  0.7589902859989266  0.2466728788316439
  0.5052499335539233  0.7462237908989685  0.2475610089930250
  0.2577357642194409 -0.0038446160134611  0.7494358931982601
  0.7556436003410251  0.9957819562382110  0.7480786551751271
  0.2576390582433198  0.4962553165261845  0.7510393970416819
  0.7532846380373185  0.4956755566281281  0.7471588174602815
  0.0078635910566988  0.4957246996928277  0.5026502366159991
  0.5047811155848763  0.4954523402470996  0.4954938615796928
  0.0066836268656869 -0.0041803743405183  0.5014878498902418
  0.5064168968623594 -0.0042885799543388  0.4991787091755588
  0.2564142214080541  0.2495664192970733 -0.0014564340730813
  0.7565558557091163  0.2481711790914421 -0.0031151676522205
  0.2568335383989198  0.7424332737782418 -0.0010253861979057
  0.7566870900311317  0.7430759314207935 -0.0030709398724981
  0.2520943902359312  0.3708472624662618  0.3734854794847753
  0.7658341625941255  0.3738711154477217  0.3648529364504282
  0.2569645791683238  0.8701904872844921  0.3758300218331634
  0.7571296709541152  0.8691404389166539  0.3738834616977821
  0.5066657183205012  0.1211093994234122  0.8735727052091385
  0.0069863353220273  0.1210394704432231  0.8742670045220756
  0.5066405514555942  0.6196779652967411  0.8728689594687888
  0.0048629622214508  0.6207072862964664  0.8711954371598657
  0.3644250390549675  0.4955379586123497  0.1318540450197026
  0.8586551862312451  0.4953777051925626  0.1606912937459932
  0.3819291501653982  0.9955336969331717  0.1236695102007010
  0.8806762968611641 -0.0042948056021986  0.1195369700500500
  0.6309361287488706  0.2462946551894003  0.6230376275804124
  0.1312400235893803  0.2467101410113097  0.6219892655926854
  0.6316233863785441  0.7449592949240180  0.6225081731680250
  0.1318528922969289  0.7451296863321313  0.6215527970769987
  0.2521457517333897  0.6208461969944321  0.3736062461052584
  0.7658804874289310  0.6166426717002432  0.3645460721967755
  0.2569081257292625  0.1212224825921629  0.3758000128204623
  0.7570445938669176  0.1213279765174790  0.3734262547136957
  0.5063734894743489  0.3712809589737156  0.8729219842707230
  0.0047659632559299  0.3707134800316818  0.8712885616568444
  0.5066590530929591  0.8699765393512346  0.8734885838287045
  0.0072074920869583  0.8705994979130655  0.8743200195016804
  0.0753367382837095  0.4956888979779764  0.0793338386042724
  0.6195225466449528  0.4952661736117442  0.1131691857895546
  0.1309825439711809 -0.0041877656436817  0.1179816519186358
  0.6314699878387389 -0.0045863783364467  0.1241570781073023
  0.3808834936300718  0.2469180657132578  0.6225167865777935
  0.8812427981292490  0.2464358693307638  0.6216885704584847
  0.3815881933028660  0.7447098880219895  0.6226645648317566
  0.8818605803229177  0.7450971337407318  0.6216009655182324
  0.4994638525568503  0.4951396572865941  0.2456472262910717
  0.0063385218731155 -0.0041808481808473  0.2457954257368662
  0.5066093854678679  0.9953143163248382  0.2495501832228814
  0.2556858712672196  0.2475090654393578  0.7483686588524091
  0.7567171924005994  0.2469118519553568  0.7476144752138939
  0.2560534305853129  0.7443254426928916  0.7482873229957437
  0.7572083246227133  0.7443616828811761  0.7473925647810351
  0.0071099956157307  0.2471107584065260 -0.0013778504922602
  0.5067763822096834  0.2467914282042497 -0.0012566019375291
  0.0072789387504600  0.7443119598332808 -0.0014672495996084
  0.5071249465385250  0.7442282030917988 -0.0014127630584473
  0.2564647561596304 -0.0043362876680215  0.5002468878547992
  0.7563141218103898 -0.0045874118862409  0.4978153447134265
  0.2505750045272787  0.4958169204392332  0.4990455064643851
  0.7611652646999167  0.4954130346207425  0.4941104358532602
  0.0060707327254112  0.2476998775599516  0.4957117886702329
  0.5065055491664529  0.2475972702310542  0.4969865402214184
  0.0065400249319809  0.7437676652809069  0.4954113003396197
  0.5069496209622742  0.7435118531116690  0.4967403586123363
  0.2582039592464545 -0.0042502523116808 -0.0029459629550197
  0.7546699476234993 -0.0044478740171448 -0.0032536104671456
  0.2402511188306325  0.4958435158699679  0.0049319112676327
  0.7544547222719009  0.4954759484053020  0.0005926932806283
  0.0021994143177047  0.4956660255064458  0.7449957084034474
  0.5048700761270354  0.4954841348952689  0.7460140528492978
  0.0062322477531207 -0.0042347530377057  0.7487570864568968
  0.5067705834828553  0.9955591765386007  0.7484776559657695
  0.2543417284418688  0.2453673574481473  0.2489705257746782
  0.7612209625311664  0.2450945905958662  0.2460778559379043
  0.2545531927543553  0.7461010736402074  0.2489583439646740
  0.7611916729976987  0.7456147386216144  0.2461420405627752

  0.00000000E+00  0.00000000E+00  0.00000000E+00
  0.00000000E+00  0.00000000E+00  0.00000000E+00
  0.00000000E+00  0.00000000E+00  0.00000000E+00
  0.00000000E+00  0.00000000E+00  0.00000000E+00
  0.00000000E+00  0.00000000E+00  0.00000000E+00
  0.00000000E+00  0.00000000E+00  0.00000000E+00
  0.00000000E+00  0.00000000E+00  0.00000000E+00
  0.00000000E+00  0.00000000E+00  0.00000000E+00
  0.00000000E+00  0.00000000E+00  0.00000000E+00
  0.00000000E+00  0.00000000E+00  0.00000000E+00
  0.00000000E+00  0.00000000E+00  0.00000000E+00
  0.00000000E+00  0.00000000E+00  0.00000000E+00
  0.00000000E+00  0.00000000E+00  0.00000000E+00
  0.00000000E+00  0.00000000E+00  0.00000000E+00
  0.00000000E+00  0.00000000E+00  0.00000000E+00
  0.00000000E+00  0.00000000E+00  0.00000000E+00
  0.00000000E+00  0.00000000E+00  0.00000000E+00
  0.00000000E+00  0.00000000E+00  0.00000000E+00
  0.00000000E+00  0.00000000E+00  0.00000000E+00
  0.00000000E+00  0.00000000E+00  0.00000000E+00
  0.00000000E+00  0.00000000E+00  0.00000000E+00
  0.00000000E+00  0.00000000E+00  0.00000000E+00
  0.00000000E+00  0.00000000E+00  0.00000000E+00
  0.00000000E+00  0.00000000E+00  0.00000000E+00
  0.00000000E+00  0.00000000E+00  0.00000000E+00
  0.00000000E+00  0.00000000E+00  0.00000000E+00
  0.00000000E+00  0.00000000E+00  0.00000000E+00
  0.00000000E+00  0.00000000E+00  0.00000000E+00
  0.00000000E+00  0.00000000E+00  0.00000000E+00
  0.00000000E+00  0.00000000E+00  0.00000000E+00
  0.00000000E+00  0.00000000E+00  0.00000000E+00
  0.00000000E+00  0.00000000E+00  0.00000000E+00
  0.00000000E+00  0.00000000E+00  0.00000000E+00
  0.00000000E+00  0.00000000E+00  0.00000000E+00
  0.00000000E+00  0.00000000E+00  0.00000000E+00
  0.00000000E+00  0.00000000E+00  0.00000000E+00
  0.00000000E+00  0.00000000E+00  0.00000000E+00
  0.00000000E+00  0.00000000E+00  0.00000000E+00
  0.00000000E+00  0.00000000E+00  0.00000000E+00
  0.00000000E+00  0.00000000E+00  0.00000000E+00
  0.00000000E+00  0.00000000E+00  0.00000000E+00
  0.00000000E+00  0.00000000E+00  0.00000000E+00
  0.00000000E+00  0.00000000E+00  0.00000000E+00
  0.00000000E+00  0.00000000E+00  0.00000000E+00
  0.00000000E+00  0.00000000E+00  0.00000000E+00
  0.00000000E+00  0.00000000E+00  0.00000000E+00
  0.00000000E+00  0.00000000E+00  0.00000000E+00
  0.00000000E+00  0.00000000E+00  0.00000000E+00
  0.00000000E+00  0.00000000E+00  0.00000000E+00
  0.00000000E+00  0.00000000E+00  0.00000000E+00
  0.00000000E+00  0.00000000E+00  0.00000000E+00
  0.00000000E+00  0.00000000E+00  0.00000000E+00
  0.00000000E+00  0.00000000E+00  0.00000000E+00
  0.00000000E+00  0.00000000E+00  0.00000000E+00
  0.00000000E+00  0.00000000E+00  0.00000000E+00
  0.00000000E+00  0.00000000E+00  0.00000000E+00
  0.00000000E+00  0.00000000E+00  0.00000000E+00
  0.00000000E+00  0.00000000E+00  0.00000000E+00
  0.00000000E+00  0.00000000E+00  0.00000000E+00
  0.00000000E+00  0.00000000E+00  0.00000000E+00
  0.00000000E+00  0.00000000E+00  0.00000000E+00
  0.00000000E+00  0.00000000E+00  0.00000000E+00
  0.00000000E+00  0.00000000E+00  0.00000000E+00
  0.00000000E+00  0.00000000E+00  0.00000000E+00
  0.00000000E+00  0.00000000E+00  0.00000000E+00
  0.00000000E+00  0.00000000E+00  0.00000000E+00
  0.00000000E+00  0.00000000E+00  0.00000000E+00
  0.00000000E+00  0.00000000E+00  0.00000000E+00
  0.00000000E+00  0.00000000E+00  0.00000000E+00
  0.00000000E+00  0.00000000E+00  0.00000000E+00
  0.00000000E+00  0.00000000E+00  0.00000000E+00
  0.00000000E+00  0.00000000E+00  0.00000000E+00
  0.00000000E+00  0.00000000E+00  0.00000000E+00
  0.00000000E+00  0.00000000E+00  0.00000000E+00
  0.00000000E+00  0.00000000E+00  0.00000000E+00
  0.00000000E+00  0.00000000E+00  0.00000000E+00
  0.00000000E+00  0.00000000E+00  0.00000000E+00
  0.00000000E+00  0.00000000E+00  0.00000000E+00
  0.00000000E+00  0.00000000E+00  0.00000000E+00
