vac_1_Cd[0. 0. 0.]_-dNELECT=0           
   1.0000000000000000     
    13.0867679999999993    0.0000000000000000    0.0000000000000000
     0.0000000000000000   13.0867679999999993    0.0000000000000000
     0.0000000000000000    0.0000000000000000   13.0867679999999993
   Cd   Te
    31    32
Direct
  0.0000171598920804  0.0002781152122902  0.4999550646374073
 -0.0002255296263468  0.4999641618733549  0.0000734921630292
 -0.0000516087627443  0.4998351818457867  0.4999771221191634
  0.5001558941962723  0.0002227730915684  0.0000193014695439
  0.5000402582738279  0.0000328016449885  0.4999916173931599
  0.4998645680606204  0.5000043271312821  0.0000445229785565
  0.4999365168385770  0.5001203132754304  0.5000577588743416
 -0.0025238979918553  0.2456857751507655  0.2434879264589507
  0.0043293869344567  0.2455962288961103  0.7566451127106082
  0.0057029300563490  0.7544795178538155  0.2428307971998449
 -0.0038741326914581  0.7542732226656724  0.7569556252525487
  0.4999035640498589  0.2484757293986717  0.2499310946937081
  0.5001058880589609  0.2488251140973234  0.7497107834163345
  0.5005772450646047  0.7509885242177626  0.2503166344920191
  0.4995294830862437  0.7512358800545177  0.7500779727155125
  0.2458072610801402 -0.0054999428488547  0.2428995867657347
  0.2455665247137188  0.0032293167725537  0.7570651034109968
  0.2492759039487145  0.4994903769555408  0.2504876038258667
  0.2486118533734591  0.5004204684526031  0.7501527093120768
  0.7545525491770518  0.0024946783023127  0.2434742650785885
  0.7543446030656134 -0.0049033169484558  0.7564919959840218
  0.7516145245581245  0.5001667463066337  0.2498555679174760
  0.7509729863730585  0.4996523265497464  0.7494944520902104
  0.2459738850122037  0.2456853443530045 -0.0072989190135792
  0.2480832119968730  0.2478150723757121  0.4993020437337835
  0.2451240107044749  0.7548873030085242  0.0090359724416769
  0.2481428159772090  0.7518411180435142  0.5008443611496995
  0.7536643356611584  0.2463489393700974  0.0056860038328884
  0.7522710457949502  0.2476901385120049  0.5008862663403557
  0.7542793221310451  0.7538386424930864 -0.0078233123519281
  0.7521995898065317  0.7518478609673058  0.4990693140498401
  0.1244306180798621  0.1236845742759115  0.3723174514977864
  0.1158756788853461  0.1166325194321684  0.8847648683653557
  0.1241099390619765  0.6263798472007270  0.3747700419512319
  0.1254673284113934  0.6265121703584398  0.8762952755746278
  0.6269857543498646  0.1238650234741021  0.3741489184498667
  0.6257643620015215  0.1256642461772683  0.8749365775509198
  0.6259791790889523  0.6255073356042021  0.3757266617717757
  0.6246230838743126  0.6248737499085272  0.8737572896010219
  0.1259325103682264  0.3743524894331561  0.1243562673212313
  0.1238817163655697  0.3736568889039765  0.6254738612340509
  0.1146899045574319  0.8857774672746915  0.1147454822035905
  0.1236627899926264  0.8761644608908687  0.6276651956902988
  0.6249627410395431  0.3750590920421612  0.1259997664709417
  0.6254893308097266  0.3743206021061473  0.6239021178470320
  0.6259932895735857  0.8742150010598141  0.1241321726237748
  0.6262238674849739  0.8759178105078885  0.6251556655393294
  0.3738514609611066  0.1255288275270833  0.1245402688012148
  0.3730590997218072  0.1238768263605980  0.6258707126966311
  0.3749223857791441  0.6251274984486256  0.1264167944977409
  0.3740678507602369  0.6258360738962480  0.6245365818756792
  0.8825239519786594  0.1176897792987602  0.1158769865172814
  0.8758949993948096  0.1239915752927453  0.6276514824157189
  0.8746024649637625  0.6264396032812797  0.1244570590805634
  0.8759979820487641  0.6267194859069255  0.6255512689135687
  0.3745454258669558  0.3740663966744602  0.3759344531814998
  0.3748355837434572  0.3751860535390993  0.8738777356766825
  0.3736210856565345  0.8760211518686004  0.3747680506490136
  0.3736523523438979  0.8744496127677460  0.8763642355599012
  0.8761247768968032  0.3730689368618955  0.3741836268185895
  0.8742655751481301  0.3744440829085429  0.8750323553778112
  0.8766009676115644  0.8757666660183996  0.3723968917280617
  0.8833897943656783  0.8841814116242709  0.8846960413747700

  0.00000000E+00  0.00000000E+00  0.00000000E+00
  0.00000000E+00  0.00000000E+00  0.00000000E+00
  0.00000000E+00  0.00000000E+00  0.00000000E+00
  0.00000000E+00  0.00000000E+00  0.00000000E+00
  0.00000000E+00  0.00000000E+00  0.00000000E+00
  0.00000000E+00  0.00000000E+00  0.00000000E+00
  0.00000000E+00  0.00000000E+00  0.00000000E+00
  0.00000000E+00  0.00000000E+00  0.00000000E+00
  0.00000000E+00  0.00000000E+00  0.00000000E+00
  0.00000000E+00  0.00000000E+00  0.00000000E+00
  0.00000000E+00  0.00000000E+00  0.00000000E+00
  0.00000000E+00  0.00000000E+00  0.00000000E+00
  0.00000000E+00  0.00000000E+00  0.00000000E+00
  0.00000000E+00  0.00000000E+00  0.00000000E+00
  0.00000000E+00  0.00000000E+00  0.00000000E+00
  0.00000000E+00  0.00000000E+00  0.00000000E+00
  0.00000000E+00  0.00000000E+00  0.00000000E+00
  0.00000000E+00  0.00000000E+00  0.00000000E+00
  0.00000000E+00  0.00000000E+00  0.00000000E+00
  0.00000000E+00  0.00000000E+00  0.00000000E+00
  0.00000000E+00  0.00000000E+00  0.00000000E+00
  0.00000000E+00  0.00000000E+00  0.00000000E+00
  0.00000000E+00  0.00000000E+00  0.00000000E+00
  0.00000000E+00  0.00000000E+00  0.00000000E+00
  0.00000000E+00  0.00000000E+00  0.00000000E+00
  0.00000000E+00  0.00000000E+00  0.00000000E+00
  0.00000000E+00  0.00000000E+00  0.00000000E+00
  0.00000000E+00  0.00000000E+00  0.00000000E+00
  0.00000000E+00  0.00000000E+00  0.00000000E+00
  0.00000000E+00  0.00000000E+00  0.00000000E+00
  0.00000000E+00  0.00000000E+00  0.00000000E+00
  0.00000000E+00  0.00000000E+00  0.00000000E+00
  0.00000000E+00  0.00000000E+00  0.00000000E+00
  0.00000000E+00  0.00000000E+00  0.00000000E+00
  0.00000000E+00  0.00000000E+00  0.00000000E+00
  0.00000000E+00  0.00000000E+00  0.00000000E+00
  0.00000000E+00  0.00000000E+00  0.00000000E+00
  0.00000000E+00  0.00000000E+00  0.00000000E+00
  0.00000000E+00  0.00000000E+00  0.00000000E+00
  0.00000000E+00  0.00000000E+00  0.00000000E+00
  0.00000000E+00  0.00000000E+00  0.00000000E+00
  0.00000000E+00  0.00000000E+00  0.00000000E+00
  0.00000000E+00  0.00000000E+00  0.00000000E+00
  0.00000000E+00  0.00000000E+00  0.00000000E+00
  0.00000000E+00  0.00000000E+00  0.00000000E+00
  0.00000000E+00  0.00000000E+00  0.00000000E+00
  0.00000000E+00  0.00000000E+00  0.00000000E+00
  0.00000000E+00  0.00000000E+00  0.00000000E+00
  0.00000000E+00  0.00000000E+00  0.00000000E+00
  0.00000000E+00  0.00000000E+00  0.00000000E+00
  0.00000000E+00  0.00000000E+00  0.00000000E+00
  0.00000000E+00  0.00000000E+00  0.00000000E+00
  0.00000000E+00  0.00000000E+00  0.00000000E+00
  0.00000000E+00  0.00000000E+00  0.00000000E+00
  0.00000000E+00  0.00000000E+00  0.00000000E+00
  0.00000000E+00  0.00000000E+00  0.00000000E+00
  0.00000000E+00  0.00000000E+00  0.00000000E+00
  0.00000000E+00  0.00000000E+00  0.00000000E+00
  0.00000000E+00  0.00000000E+00  0.00000000E+00
  0.00000000E+00  0.00000000E+00  0.00000000E+00
  0.00000000E+00  0.00000000E+00  0.00000000E+00
  0.00000000E+00  0.00000000E+00  0.00000000E+00
  0.00000000E+00  0.00000000E+00  0.00000000E+00
