Unperturbed__num_neighbours=1__Vac_O_mul
   1.0000000000000000     
     0.0000000000000000   10.7468629999999994    0.0000000000000000
   -10.7468629999999994    0.0000000000000000    0.0000000000000000
     0.0000000000000000    0.0000000000000000    9.7925889999999995
   Sr   Cu   O 
    16    32    31
Direct
  0.0000186486742408  0.2378110852824517  0.2509203574437955
  0.4999791383800333  0.2496167659522283  0.2514397897127792
  0.0000205208222175  0.7622673071040493  0.2509265769775786
  0.4999746268808494  0.7503423807819433  0.2514341820008421
  0.2508162814682433 -0.0000207748002208  0.7498458103148474
  0.7491876241309845 -0.0000118459007153  0.7498860700010556
  0.2533386590370581  0.5000113503864471  0.7502441232429757
  0.7466474021486446  0.5000124335069412  0.7502477729514315
 -0.0000228438449334  0.5000059398564376  0.5138849476902300
  0.4999996101394611  0.5000128134343954  0.5003439660919923
 -0.0000097068832150  0.0000320013769000  0.5031766044961861
  0.5000021061625906  0.0000012860368377  0.5005848146733408
  0.2537914270811577  0.2509347675036926 -0.0002303426951625
  0.7462054106657735  0.2509220843650032 -0.0002002494790394
  0.2538010825156783  0.7490652759573695 -0.0002005151867904
  0.7461973531077699  0.7490690681433323 -0.0001880394431999
  0.2425527680779667  0.3778605440975577  0.3684014555495240
  0.7574453297003894  0.3778805413040165  0.3683426943400081
  0.2499369632613672  0.8742155720867584  0.3757460996214895
  0.7500755564878101  0.8742319266001640  0.3757394498372962
  0.5000015571842388  0.1248695187482767  0.8751761603069677
  0.0000064075666907  0.1240156445827905  0.8778930273191703
  0.5000057797668839  0.6253622433746310  0.8751490941826885
 -0.0000160764861512  0.6197587425801256  0.8933774970443711
  0.3764974293481602  0.4999980574426635  0.1274456866433651
  0.8927434540912735  0.5000072412834096  0.1002539052646821
  0.3749440187411033 -0.0000069433367187  0.1261035072962173
  0.8759943548189622  0.0000198040342456  0.1190223183779670
  0.6248133049529745  0.2502829555290172  0.6263149535648397
  0.1254374841288464  0.2501589924145254  0.6239524808932230
  0.6248054984262176  0.7497130034781065  0.6263244744633305
  0.1254405270482018  0.7498423274785024  0.6239449292403753
  0.2425418114933939  0.6221052210728327  0.3683886982601108
  0.7574591863648680  0.6220941824764732  0.3683385377166127
  0.2499254162183820  0.1257487805517620  0.3757084426316286
  0.7500701065587787  0.1257572873280265  0.3757197468743549
  0.4999966731711067  0.3746316096311761  0.8751387051550559
 -0.0000225033004675  0.3802603701646380  0.8933711907769277
  0.4999999619267940  0.8751076616373830  0.8751705937949462
  0.0000097077857476  0.8760299688658197  0.8779158716032162
  0.1071645331682275  0.5000071059981633  0.1002255203252741
  0.6234205431265900  0.4999935534888432  0.1274574370374157
  0.1241639585084889  0.0000260404603515  0.1190840787585131
  0.6251317902918865 -0.0000108194800546  0.1261611237765949
  0.3751978831244224  0.2502904052136512  0.6263068741643297
  0.8745591666672411  0.2501583263117257  0.6239604519578253
  0.3751863672799034  0.7497202311676241  0.6263092111117374
  0.8745543374107640  0.7498468625291500  0.6239534723796382
  0.4999556837621289  0.4999989580238781  0.2548030096281678
  0.0000607811486354  0.0000604509734235  0.2474688848762434
  0.5000188894853537 -0.0000064882829510  0.2513771416598626
  0.2488624946950281  0.2508595517382292  0.7505082459988273
  0.7511413768787245  0.2508719155438621  0.7505249915176865
  0.2488559387200373  0.7491218972514622  0.7505205336134589
  0.7511419145070704  0.7491275620660460  0.7505293497047428
  0.0000024942192795  0.2464118948690681  0.0055888943506449
  0.4999999311082516  0.2495782892255081  0.0013169434286707
  0.0000026534511887  0.7536247539081651  0.0055929476648414
  0.4999992400234475  0.7504141668864263  0.0013292629030419
  0.2497669037508593 -0.0000074223945642  0.5001315030827608
  0.7502410267041250  0.0000010254857033  0.5001464941047576
  0.2422636027363794  0.4999878711468791  0.4970464414383396
  0.7577252084678263  0.4999919303778441  0.4970169569010623
 -0.0000059707475574  0.2525139624729482  0.4990772077385928
  0.5000088196680466  0.2510413579110771  0.5004111567650283
 -0.0000052274988578  0.7474893598949198  0.4990732999535216
  0.5000020237999276  0.7489312896845390  0.5004159484198792
  0.2519075018611374 -0.0000063011367598 -0.0016603046940926
  0.7481564295504839 -0.0000087439175801 -0.0016062617086495
  0.2558987932299768  0.4999947018978520 -0.0014332694620905
  0.7440110477200426  0.4999920134613263 -0.0014288800430774
 -0.0000199606178283  0.5000052691968134  0.7599984831503899
  0.4999976577445997  0.5000030255595208  0.7493893177841457
  0.0000042135636916  0.0000116772993135  0.7505473136050308
  0.5000070206956373 -0.0000125868504824  0.7495731246999883
  0.2469050242150606  0.2495223961701358  0.2485679890017909
  0.7531003440570689  0.2495078331498783  0.2485639736275160
  0.2468861871195889  0.7504545844518316  0.2485839163321275
  0.7531173185830279  0.7504749058329553  0.2485768248942302

  0.00000000E+00  0.00000000E+00  0.00000000E+00
  0.00000000E+00  0.00000000E+00  0.00000000E+00
  0.00000000E+00  0.00000000E+00  0.00000000E+00
  0.00000000E+00  0.00000000E+00  0.00000000E+00
  0.00000000E+00  0.00000000E+00  0.00000000E+00
  0.00000000E+00  0.00000000E+00  0.00000000E+00
  0.00000000E+00  0.00000000E+00  0.00000000E+00
  0.00000000E+00  0.00000000E+00  0.00000000E+00
  0.00000000E+00  0.00000000E+00  0.00000000E+00
  0.00000000E+00  0.00000000E+00  0.00000000E+00
  0.00000000E+00  0.00000000E+00  0.00000000E+00
  0.00000000E+00  0.00000000E+00  0.00000000E+00
  0.00000000E+00  0.00000000E+00  0.00000000E+00
  0.00000000E+00  0.00000000E+00  0.00000000E+00
  0.00000000E+00  0.00000000E+00  0.00000000E+00
  0.00000000E+00  0.00000000E+00  0.00000000E+00
  0.00000000E+00  0.00000000E+00  0.00000000E+00
  0.00000000E+00  0.00000000E+00  0.00000000E+00
  0.00000000E+00  0.00000000E+00  0.00000000E+00
  0.00000000E+00  0.00000000E+00  0.00000000E+00
  0.00000000E+00  0.00000000E+00  0.00000000E+00
  0.00000000E+00  0.00000000E+00  0.00000000E+00
  0.00000000E+00  0.00000000E+00  0.00000000E+00
  0.00000000E+00  0.00000000E+00  0.00000000E+00
  0.00000000E+00  0.00000000E+00  0.00000000E+00
  0.00000000E+00  0.00000000E+00  0.00000000E+00
  0.00000000E+00  0.00000000E+00  0.00000000E+00
  0.00000000E+00  0.00000000E+00  0.00000000E+00
  0.00000000E+00  0.00000000E+00  0.00000000E+00
  0.00000000E+00  0.00000000E+00  0.00000000E+00
  0.00000000E+00  0.00000000E+00  0.00000000E+00
  0.00000000E+00  0.00000000E+00  0.00000000E+00
  0.00000000E+00  0.00000000E+00  0.00000000E+00
  0.00000000E+00  0.00000000E+00  0.00000000E+00
  0.00000000E+00  0.00000000E+00  0.00000000E+00
  0.00000000E+00  0.00000000E+00  0.00000000E+00
  0.00000000E+00  0.00000000E+00  0.00000000E+00
  0.00000000E+00  0.00000000E+00  0.00000000E+00
  0.00000000E+00  0.00000000E+00  0.00000000E+00
  0.00000000E+00  0.00000000E+00  0.00000000E+00
  0.00000000E+00  0.00000000E+00  0.00000000E+00
  0.00000000E+00  0.00000000E+00  0.00000000E+00
  0.00000000E+00  0.00000000E+00  0.00000000E+00
  0.00000000E+00  0.00000000E+00  0.00000000E+00
  0.00000000E+00  0.00000000E+00  0.00000000E+00
  0.00000000E+00  0.00000000E+00  0.00000000E+00
  0.00000000E+00  0.00000000E+00  0.00000000E+00
  0.00000000E+00  0.00000000E+00  0.00000000E+00
  0.00000000E+00  0.00000000E+00  0.00000000E+00
  0.00000000E+00  0.00000000E+00  0.00000000E+00
  0.00000000E+00  0.00000000E+00  0.00000000E+00
  0.00000000E+00  0.00000000E+00  0.00000000E+00
  0.00000000E+00  0.00000000E+00  0.00000000E+00
  0.00000000E+00  0.00000000E+00  0.00000000E+00
  0.00000000E+00  0.00000000E+00  0.00000000E+00
  0.00000000E+00  0.00000000E+00  0.00000000E+00
  0.00000000E+00  0.00000000E+00  0.00000000E+00
  0.00000000E+00  0.00000000E+00  0.00000000E+00
  0.00000000E+00  0.00000000E+00  0.00000000E+00
  0.00000000E+00  0.00000000E+00  0.00000000E+00
  0.00000000E+00  0.00000000E+00  0.00000000E+00
  0.00000000E+00  0.00000000E+00  0.00000000E+00
  0.00000000E+00  0.00000000E+00  0.00000000E+00
  0.00000000E+00  0.00000000E+00  0.00000000E+00
  0.00000000E+00  0.00000000E+00  0.00000000E+00
  0.00000000E+00  0.00000000E+00  0.00000000E+00
  0.00000000E+00  0.00000000E+00  0.00000000E+00
  0.00000000E+00  0.00000000E+00  0.00000000E+00
  0.00000000E+00  0.00000000E+00  0.00000000E+00
  0.00000000E+00  0.00000000E+00  0.00000000E+00
  0.00000000E+00  0.00000000E+00  0.00000000E+00
  0.00000000E+00  0.00000000E+00  0.00000000E+00
  0.00000000E+00  0.00000000E+00  0.00000000E+00
  0.00000000E+00  0.00000000E+00  0.00000000E+00
  0.00000000E+00  0.00000000E+00  0.00000000E+00
  0.00000000E+00  0.00000000E+00  0.00000000E+00
  0.00000000E+00  0.00000000E+00  0.00000000E+00
  0.00000000E+00  0.00000000E+00  0.00000000E+00
  0.00000000E+00  0.00000000E+00  0.00000000E+00
