10.0%_BDM_Distortion_vac_1_Cd[0. 0. 0.]_
   1.00000000000000     
    13.0867679999999993    0.0000000000000000    0.0000000000000000
     0.0000000000000000   13.0867679999999993    0.0000000000000000
     0.0000000000000000    0.0000000000000000   13.0867679999999993
   Cd   Te
    31    32
Direct
  0.0020395878313542  0.9978374742440854  0.4983590885691705
  0.0020124675419711  0.4975587486636913 -0.0011905098371629
  0.0017322942360491  0.4971652695396941  0.4995853722948542
  0.5022181789730472  0.9976866964462597 -0.0014742889494560
  0.5013228553665221  0.9970753662013867  0.4989635052076102
  0.5019550586005517  0.4977921550108925 -0.0012353529845882
  0.5021550515216074  0.4978080301216929  0.4985920583437262
  0.9944192124307111  0.2424312141787841  0.2448612563748334
  0.0060015782255118  0.2417122609744037  0.7543518730057331
  0.0073890325769821  0.7537637125736777  0.2446469187371302
  0.9966559140648721  0.7541457427911854  0.7547417731283144
  0.5004127550352137  0.2466526636921370  0.2482226394613242
  0.5015252199001798  0.2465962596956015  0.7507020893820143
  0.5023314455803012  0.7486430779024994  0.2479975266357719
  0.5020986132232765  0.7482966925250075  0.7498880499807705
  0.2456962773694854  0.9894529855150866  0.2447246029464294
  0.2468210855828442  0.0038212626178384  0.7543329539907598
  0.2502225902406881  0.4971192588905243  0.2480204862404537
  0.2499410312446304  0.4975287389680431  0.7519004260275488
  0.7570825698825318  0.0064710258590679  0.2439342282666870
  0.7567725462843402  0.9917432975956642  0.7551946479916268
  0.7526930642717465  0.4981996697104527  0.2481385161945870
  0.7534757030570546  0.4975680263982745  0.7504850701062221
  0.2461893520406155  0.2411540054393378 -0.0038931475850166
  0.2503160187188527  0.2467220027171323  0.4988913052769431
  0.2466966745254371  0.7541590254660938  0.0060845589665667
  0.2505561926044654  0.7469513963423074  0.5009570683234021
  0.7566454286958169  0.2426175076880159  0.0063620728790910
  0.7515173751027537  0.2466309914185194  0.5006366049660306
  0.7568337477253817  0.7537778994132209 -0.0042656471937943
  0.7536047813337733  0.7492966242948753  0.4990610874955280
  0.1264338095023402  0.1232050818411376  0.3722634117515741
  0.1180613212068463  0.1139266709117625  0.8824858167738334
  0.1260230198199800  0.6227331011102655  0.3738959496620358
  0.1263490286411323  0.6249110887670251  0.8749732061673257
  0.6260945653665200  0.1228302949615773  0.3739953670917652
  0.6284337144745292  0.1234316460429868  0.8745456492687108
  0.6275398467768987  0.6235131302382181  0.3740028358383817
  0.6281674893280496  0.6238049098873178  0.8748374835008274
  0.1253542316482705  0.3708540998811980  0.1244455363794910
  0.1259918374701312  0.3718192472058243  0.6252655256787590
  0.1164632991629801  0.8820075012795092  0.1146291743626563
  0.1265355039582685  0.8730713304319967  0.6251541112317428
  0.6264679795727867  0.3725262567574618  0.1240047379636694
  0.6262243950127121  0.3732710718248538  0.6250611041616880
  0.6284190947428825  0.8740210986671033  0.1247254482221182
  0.6275447968166951  0.8734808209375337  0.6244225821061917
  0.3751433560117020  0.1210192992236390  0.1247781673677275
  0.3761191825266821  0.1225527458985346  0.6241883186691727
  0.3761332485339025  0.6228393277360003  0.1238571200743767
  0.3765776158362067  0.6215271546436074  0.6251680155625271
  0.8863410497048801  0.1140442786109190  0.1143693977214735
  0.8762206978300541  0.1219361311425331  0.6251821693681439
  0.8773971141473056  0.6241294295940688  0.1240296660681553
  0.8777794111071366  0.6237637211524604  0.6250101756353134
  0.3760779342473873  0.3727961154325220  0.3739733266562205
  0.3752422992606276  0.3713474059458953  0.8757021682987365
  0.3759504045710438  0.8714545092206858  0.3746668951236778
  0.3758544399808538  0.8726309077887655  0.8740231482623200
  0.8759927923723060  0.3723135519578842  0.3745159288320655
  0.8766007235775812  0.3710515613975048  0.8748018384165609
  0.8762733645963224  0.8738307529384447  0.3720584168727661
  0.8854097284063857  0.8817836736753164  0.8835744726668574
 
  0.00000000E+00  0.00000000E+00  0.00000000E+00
  0.00000000E+00  0.00000000E+00  0.00000000E+00
  0.00000000E+00  0.00000000E+00  0.00000000E+00
  0.00000000E+00  0.00000000E+00  0.00000000E+00
  0.00000000E+00  0.00000000E+00  0.00000000E+00
  0.00000000E+00  0.00000000E+00  0.00000000E+00
  0.00000000E+00  0.00000000E+00  0.00000000E+00
  0.00000000E+00  0.00000000E+00  0.00000000E+00
  0.00000000E+00  0.00000000E+00  0.00000000E+00
  0.00000000E+00  0.00000000E+00  0.00000000E+00
  0.00000000E+00  0.00000000E+00  0.00000000E+00
  0.00000000E+00  0.00000000E+00  0.00000000E+00
  0.00000000E+00  0.00000000E+00  0.00000000E+00
  0.00000000E+00  0.00000000E+00  0.00000000E+00
  0.00000000E+00  0.00000000E+00  0.00000000E+00
  0.00000000E+00  0.00000000E+00  0.00000000E+00
  0.00000000E+00  0.00000000E+00  0.00000000E+00
  0.00000000E+00  0.00000000E+00  0.00000000E+00
  0.00000000E+00  0.00000000E+00  0.00000000E+00
  0.00000000E+00  0.00000000E+00  0.00000000E+00
  0.00000000E+00  0.00000000E+00  0.00000000E+00
  0.00000000E+00  0.00000000E+00  0.00000000E+00
  0.00000000E+00  0.00000000E+00  0.00000000E+00
  0.00000000E+00  0.00000000E+00  0.00000000E+00
  0.00000000E+00  0.00000000E+00  0.00000000E+00
  0.00000000E+00  0.00000000E+00  0.00000000E+00
  0.00000000E+00  0.00000000E+00  0.00000000E+00
  0.00000000E+00  0.00000000E+00  0.00000000E+00
  0.00000000E+00  0.00000000E+00  0.00000000E+00
  0.00000000E+00  0.00000000E+00  0.00000000E+00
  0.00000000E+00  0.00000000E+00  0.00000000E+00
  0.00000000E+00  0.00000000E+00  0.00000000E+00
  0.00000000E+00  0.00000000E+00  0.00000000E+00
  0.00000000E+00  0.00000000E+00  0.00000000E+00
  0.00000000E+00  0.00000000E+00  0.00000000E+00
  0.00000000E+00  0.00000000E+00  0.00000000E+00
  0.00000000E+00  0.00000000E+00  0.00000000E+00
  0.00000000E+00  0.00000000E+00  0.00000000E+00
  0.00000000E+00  0.00000000E+00  0.00000000E+00
  0.00000000E+00  0.00000000E+00  0.00000000E+00
  0.00000000E+00  0.00000000E+00  0.00000000E+00
  0.00000000E+00  0.00000000E+00  0.00000000E+00
  0.00000000E+00  0.00000000E+00  0.00000000E+00
  0.00000000E+00  0.00000000E+00  0.00000000E+00
  0.00000000E+00  0.00000000E+00  0.00000000E+00
  0.00000000E+00  0.00000000E+00  0.00000000E+00
  0.00000000E+00  0.00000000E+00  0.00000000E+00
  0.00000000E+00  0.00000000E+00  0.00000000E+00
  0.00000000E+00  0.00000000E+00  0.00000000E+00
  0.00000000E+00  0.00000000E+00  0.00000000E+00
  0.00000000E+00  0.00000000E+00  0.00000000E+00
  0.00000000E+00  0.00000000E+00  0.00000000E+00
  0.00000000E+00  0.00000000E+00  0.00000000E+00
  0.00000000E+00  0.00000000E+00  0.00000000E+00
  0.00000000E+00  0.00000000E+00  0.00000000E+00
  0.00000000E+00  0.00000000E+00  0.00000000E+00
  0.00000000E+00  0.00000000E+00  0.00000000E+00
  0.00000000E+00  0.00000000E+00  0.00000000E+00
  0.00000000E+00  0.00000000E+00  0.00000000E+00
  0.00000000E+00  0.00000000E+00  0.00000000E+00
  0.00000000E+00  0.00000000E+00  0.00000000E+00
  0.00000000E+00  0.00000000E+00  0.00000000E+00
  0.00000000E+00  0.00000000E+00  0.00000000E+00
