-57.5%_Bond__vac_1_Cd[0. 0. 0.]_-dNELECT
   1.0000000000000000     
    13.0867679999999993    0.0000000000000000    0.0000000000000000
     0.0000000000000000   13.0867679999999993    0.0000000000000000
     0.0000000000000000    0.0000000000000000   13.0867679999999993
   Cd   Te
    31    32
Direct
  0.0014775604357982  0.0152160634692608  0.4960724604965342
  0.0019137006071785  0.5159868439336031 -0.0039071039581569
  0.0015666534650655  0.4964048678994145  0.4953003956665659
  0.5014682590583630  0.0153943841676323  0.9960722938671273
  0.5011504459760013  0.0043770719157177  0.4965361971197587
  0.5019462929160184  0.4966588710847345  0.9961176826945676
  0.5011933326535285  0.5053597884310596  0.4962793900763635
  0.0096819016873549  0.2588017071779722  0.2325808866665277
  0.9936921002800231  0.2595374144909299  0.7585087179112640
  0.0108359251401841  0.7561579344995927  0.2391342090518118
  0.9919311912161203  0.7555573801568976  0.7520740579907108
  0.4991006232389531  0.2530233670339520  0.2413330128814559
  0.5045376032194342  0.2528548139052352  0.7506808484890232
  0.5019667144130548  0.7531092116575739  0.2444237902106129
  0.5012762418880414  0.7527807553819696  0.7477082594601010
  0.2476578568210312  0.9919904693411619  0.2416277655376729
  0.2761134084301211 -0.0265544168976666  0.7214586938117026
  0.2594178933249069  0.5123037779211309  0.2534848350349233
  0.2506485387604080  0.5019192931002430  0.7464460999856861
  0.7264336517152199  0.9737590215839652  0.2714095112836080
  0.7557629299717066 -0.0084532329205608  0.7500794817142463
  0.7525203436622275  0.5018429936047706  0.2452849736426891
  0.7441136982706787  0.5125836195015629  0.7382543281109318
  0.2390899532450992  0.2597709414829188  0.0036727855887718
  0.2469884048074671  0.2528952349357387  0.4927348111670017
  0.2450235909415842  0.7557229451833042  0.0049868421492781
  0.2498313552019868  0.7532117116554455  0.4960481258484325
  0.7648261930041513  0.2594000589734905  0.9872440394043293
  0.7560966878030505  0.2531169910407549  0.4991984221650296
  0.7583298873566884  0.7563033091314010 -0.0130088140248278
  0.7525925138279493  0.7529729539870386  0.4952574666175930
  0.1268211052567570  0.1295099851551726  0.3639757417438534
  0.0764699943907840  0.1376130771690949  0.9210397573370697
  0.1246596429306374  0.6283416329263806  0.3743398542687214
  0.1294006475812412  0.6328670704508619  0.8677568409575835
  0.6262125181899153  0.1312147758232428  0.3716300359497982
  0.6335738716598808  0.1294710229001273  0.8705811679205404
  0.6273461729844996  0.6280265340763767  0.3697527390406331
  0.6231736438183269  0.6284693512285634  0.8731154919388169
  0.1305846582318132  0.3983111393999351  0.1249120334495988
  0.1245944823262619  0.3723281511978491  0.6256532601181344
  0.1183807394455375  0.8861523689231261  0.1123323578103094
  0.1202378018309705  0.8780334507808767  0.6184922283387790
  0.6322023886579768  0.3722437151595159  0.1188522955031762
  0.6247738495538435  0.3775077160036592  0.6194657780713594
  0.6241425859345168  0.8784599986680214  0.1149578414195436
  0.6253073939822886  0.8772656362968673  0.6199217738119289
  0.3697978951318371  0.1300934913074527  0.1212928555821019
  0.3761684683780810  0.1312668255901029  0.6213210983867933
  0.3804501506777519  0.6283274377376070  0.1189346936987332
  0.3752246888994684  0.6286980814181120  0.6220212963159363
  0.9278889011801348  0.1372488367706633  0.0691418842309746
  0.8761673376185152  0.1296977859497658  0.6279339930033152
  0.8737528956146957  0.6327914284857764  0.1238489078018291
  0.8784105714490477  0.6281702912734245  0.6164829921587567
  0.3784650864685110  0.3772487169961610  0.3726285448506891
  0.3717122074331534  0.3727720552833816  0.8727146255231205
  0.3777573961519314  0.8775312750205588  0.3720703893703680
  0.3791791139025713  0.8780548638139393  0.8772818149782204
  0.8784962775660973  0.3717979851362131  0.3655214772498104
  0.8730581160863061  0.3988014710828891  0.8668136605393055
  0.8826171042400144  0.8781486365867541  0.3735144459877186
  0.8853818390872539  0.8859730445572837  0.8793036559811651

  0.00000000E+00  0.00000000E+00  0.00000000E+00
  0.00000000E+00  0.00000000E+00  0.00000000E+00
  0.00000000E+00  0.00000000E+00  0.00000000E+00
  0.00000000E+00  0.00000000E+00  0.00000000E+00
  0.00000000E+00  0.00000000E+00  0.00000000E+00
  0.00000000E+00  0.00000000E+00  0.00000000E+00
  0.00000000E+00  0.00000000E+00  0.00000000E+00
  0.00000000E+00  0.00000000E+00  0.00000000E+00
  0.00000000E+00  0.00000000E+00  0.00000000E+00
  0.00000000E+00  0.00000000E+00  0.00000000E+00
  0.00000000E+00  0.00000000E+00  0.00000000E+00
  0.00000000E+00  0.00000000E+00  0.00000000E+00
  0.00000000E+00  0.00000000E+00  0.00000000E+00
  0.00000000E+00  0.00000000E+00  0.00000000E+00
  0.00000000E+00  0.00000000E+00  0.00000000E+00
  0.00000000E+00  0.00000000E+00  0.00000000E+00
  0.00000000E+00  0.00000000E+00  0.00000000E+00
  0.00000000E+00  0.00000000E+00  0.00000000E+00
  0.00000000E+00  0.00000000E+00  0.00000000E+00
  0.00000000E+00  0.00000000E+00  0.00000000E+00
  0.00000000E+00  0.00000000E+00  0.00000000E+00
  0.00000000E+00  0.00000000E+00  0.00000000E+00
  0.00000000E+00  0.00000000E+00  0.00000000E+00
  0.00000000E+00  0.00000000E+00  0.00000000E+00
  0.00000000E+00  0.00000000E+00  0.00000000E+00
  0.00000000E+00  0.00000000E+00  0.00000000E+00
  0.00000000E+00  0.00000000E+00  0.00000000E+00
  0.00000000E+00  0.00000000E+00  0.00000000E+00
  0.00000000E+00  0.00000000E+00  0.00000000E+00
  0.00000000E+00  0.00000000E+00  0.00000000E+00
  0.00000000E+00  0.00000000E+00  0.00000000E+00
  0.00000000E+00  0.00000000E+00  0.00000000E+00
  0.00000000E+00  0.00000000E+00  0.00000000E+00
  0.00000000E+00  0.00000000E+00  0.00000000E+00
  0.00000000E+00  0.00000000E+00  0.00000000E+00
  0.00000000E+00  0.00000000E+00  0.00000000E+00
  0.00000000E+00  0.00000000E+00  0.00000000E+00
  0.00000000E+00  0.00000000E+00  0.00000000E+00
  0.00000000E+00  0.00000000E+00  0.00000000E+00
  0.00000000E+00  0.00000000E+00  0.00000000E+00
  0.00000000E+00  0.00000000E+00  0.00000000E+00
  0.00000000E+00  0.00000000E+00  0.00000000E+00
  0.00000000E+00  0.00000000E+00  0.00000000E+00
  0.00000000E+00  0.00000000E+00  0.00000000E+00
  0.00000000E+00  0.00000000E+00  0.00000000E+00
  0.00000000E+00  0.00000000E+00  0.00000000E+00
  0.00000000E+00  0.00000000E+00  0.00000000E+00
  0.00000000E+00  0.00000000E+00  0.00000000E+00
  0.00000000E+00  0.00000000E+00  0.00000000E+00
  0.00000000E+00  0.00000000E+00  0.00000000E+00
  0.00000000E+00  0.00000000E+00  0.00000000E+00
  0.00000000E+00  0.00000000E+00  0.00000000E+00
  0.00000000E+00  0.00000000E+00  0.00000000E+00
  0.00000000E+00  0.00000000E+00  0.00000000E+00
  0.00000000E+00  0.00000000E+00  0.00000000E+00
  0.00000000E+00  0.00000000E+00  0.00000000E+00
  0.00000000E+00  0.00000000E+00  0.00000000E+00
  0.00000000E+00  0.00000000E+00  0.00000000E+00
  0.00000000E+00  0.00000000E+00  0.00000000E+00
  0.00000000E+00  0.00000000E+00  0.00000000E+00
  0.00000000E+00  0.00000000E+00  0.00000000E+00
  0.00000000E+00  0.00000000E+00  0.00000000E+00
  0.00000000E+00  0.00000000E+00  0.00000000E+00
