Si2
1.0
2.214479 0.000000 3.022182
-1.107240 1.917795 3.022182
-1.107240 -1.917795 3.022182
Si
2
direct
-0.002117 -0.002117 -0.002117 Si
0.252117 0.252117 0.252117 Si
