50.0%_BDM_Distortion_vac_1_Cd[0. 0. 0.]_
   1.00000000000000     
    13.0867679999999993    0.0000000000000000    0.0000000000000000
     0.0000000000000000   13.0867679999999993    0.0000000000000000
     0.0000000000000000    0.0000000000000000   13.0867679999999993
   Cd   Te
    31    32
Direct
  0.0015039997910543  0.9969735024843878  0.5006232597160050
  0.0018511462993437  0.4974058708266569  0.0009717747922850
  0.0022638009354106  0.4989179882079132  0.5019566967463106
  0.5017550772835067  0.9976186856962417  0.0009315113783220
  0.5012116000333954  0.9976461068625196  0.5022805037808951
  0.5006559724384534  0.4976777189868873  0.0022122954584820
  0.5011770507287991  0.4968101267545295  0.5009556116983680
  0.9947495715026463  0.2445483708511580  0.2473447079220447
  0.0067533072270316  0.2433565311339087  0.7550322347147637
  0.0093663318948778  0.7523313656989332  0.2462681968668569
  0.9938327678150372  0.7537186301889868  0.7566445442317837
  0.4999407068908420  0.2453399287439540  0.2495782902622954
  0.5031219981812876  0.2467021560686933  0.7531635245991106
  0.5031266799372666  0.7500191711945445  0.2500883419937284
  0.5000494422406061  0.7487743918619056  0.7532069471872774
  0.2444507754882061  0.9927253075130125  0.2462623140512618
  0.2452749656996319  0.0025534090033636  0.7557882018706809
  0.2519922131607139  0.4979547363214598  0.2503524292937176
  0.2506714314489245  0.4977681219928399  0.7525705492007498
  0.7577115314896617  0.0015892929766138  0.2475566515219747
  0.7574832381933307  0.9923951901266101  0.7546540715112158
  0.7520949237909428  0.4976309857045282  0.2489926599685305
  0.7511928750046520  0.4982467853916797  0.7528487296617957
  0.2453000539796656  0.2437207832139462  0.9975159701500259
  0.2504896559119942  0.2461237877706418  0.5009436574416236
  0.2444337602359793  0.7527095898059859  0.0054915337487209
  0.2519704782202195  0.7493091896193287  0.5024257886970801
  0.7573494330570880  0.2433554470939746  0.0048689507441305
  0.7519454458913316  0.2469366081227481  0.5011255658308178
  0.7583111729178680  0.7526428771389060  0.9967066044047137
  0.7514892864488703  0.7471414032521160  0.5005200204440018
  0.1258399356872384  0.1229658856605541  0.3747179530293537
  0.1169451464442774  0.1154900890910375  0.8845637291091373
  0.1279438672636352  0.6238008189781867  0.3762458093608554
  0.1257113385560630  0.6243060790686900  0.8756859171916181
  0.6264562105582919  0.1220207026261002  0.3752781128569568
  0.6288241590466622  0.1216572540716965  0.8764181517121628
  0.6258819373362887  0.6222019431184735  0.3751696977336590
  0.6262889782173291  0.6243330575813607  0.8779594672308046
  0.1265056377727936  0.3723242896302776  0.1267184200176031
  0.1266592824254028  0.3723741712593687  0.6264690781511677
  0.1160812632638903  0.8827588623495850  0.1162150499759191
  0.1262011335716088  0.8732007761173131  0.6278554296701092
  0.6263234406393478  0.3710006299562231  0.1253778723408494
  0.6264333132605053  0.3727248842180195  0.6265261431493914
  0.6289895151020803  0.8742468337895245  0.1250832284986045
  0.6264954110250275  0.8723097757324686  0.6268048670798873
  0.3740718705391775  0.1213525420796654  0.1250857958100800
  0.3760314790913128  0.1231076589523974  0.6281657167147423
  0.3759206549093277  0.6253735673281597  0.1256584618218845
  0.3766574646753493  0.6223904017364748  0.6265575176776053
  0.8853884068322655  0.1153589404462293  0.1184699769983414
  0.8764282440249093  0.1225649369683497  0.6264370787876250
  0.8773233034222859  0.6240835376248002  0.1259982389413326
  0.8760590455869111  0.6237911401018627  0.6272659312874840
  0.3762557227891322  0.3718626392713302  0.3758157065883862
  0.3758922077877558  0.3715541446577621  0.8768529065526670
  0.3760893116984913  0.8742297240470835  0.3751697315442467
  0.3739782627973475  0.8739931009715357  0.8770809311614851
  0.8759862325663940  0.3740089253775475  0.3764505088195427
  0.8762714818610159  0.3720141341438917  0.8757313698728965
  0.8765926140824508  0.8715485657127067  0.3749784527774878
  0.8860034330267758  0.8837129267224049  0.8859946076465698
 
  0.00000000E+00  0.00000000E+00  0.00000000E+00
  0.00000000E+00  0.00000000E+00  0.00000000E+00
  0.00000000E+00  0.00000000E+00  0.00000000E+00
  0.00000000E+00  0.00000000E+00  0.00000000E+00
  0.00000000E+00  0.00000000E+00  0.00000000E+00
  0.00000000E+00  0.00000000E+00  0.00000000E+00
  0.00000000E+00  0.00000000E+00  0.00000000E+00
  0.00000000E+00  0.00000000E+00  0.00000000E+00
  0.00000000E+00  0.00000000E+00  0.00000000E+00
  0.00000000E+00  0.00000000E+00  0.00000000E+00
  0.00000000E+00  0.00000000E+00  0.00000000E+00
  0.00000000E+00  0.00000000E+00  0.00000000E+00
  0.00000000E+00  0.00000000E+00  0.00000000E+00
  0.00000000E+00  0.00000000E+00  0.00000000E+00
  0.00000000E+00  0.00000000E+00  0.00000000E+00
  0.00000000E+00  0.00000000E+00  0.00000000E+00
  0.00000000E+00  0.00000000E+00  0.00000000E+00
  0.00000000E+00  0.00000000E+00  0.00000000E+00
  0.00000000E+00  0.00000000E+00  0.00000000E+00
  0.00000000E+00  0.00000000E+00  0.00000000E+00
  0.00000000E+00  0.00000000E+00  0.00000000E+00
  0.00000000E+00  0.00000000E+00  0.00000000E+00
  0.00000000E+00  0.00000000E+00  0.00000000E+00
  0.00000000E+00  0.00000000E+00  0.00000000E+00
  0.00000000E+00  0.00000000E+00  0.00000000E+00
  0.00000000E+00  0.00000000E+00  0.00000000E+00
  0.00000000E+00  0.00000000E+00  0.00000000E+00
  0.00000000E+00  0.00000000E+00  0.00000000E+00
  0.00000000E+00  0.00000000E+00  0.00000000E+00
  0.00000000E+00  0.00000000E+00  0.00000000E+00
  0.00000000E+00  0.00000000E+00  0.00000000E+00
  0.00000000E+00  0.00000000E+00  0.00000000E+00
  0.00000000E+00  0.00000000E+00  0.00000000E+00
  0.00000000E+00  0.00000000E+00  0.00000000E+00
  0.00000000E+00  0.00000000E+00  0.00000000E+00
  0.00000000E+00  0.00000000E+00  0.00000000E+00
  0.00000000E+00  0.00000000E+00  0.00000000E+00
  0.00000000E+00  0.00000000E+00  0.00000000E+00
  0.00000000E+00  0.00000000E+00  0.00000000E+00
  0.00000000E+00  0.00000000E+00  0.00000000E+00
  0.00000000E+00  0.00000000E+00  0.00000000E+00
  0.00000000E+00  0.00000000E+00  0.00000000E+00
  0.00000000E+00  0.00000000E+00  0.00000000E+00
  0.00000000E+00  0.00000000E+00  0.00000000E+00
  0.00000000E+00  0.00000000E+00  0.00000000E+00
  0.00000000E+00  0.00000000E+00  0.00000000E+00
  0.00000000E+00  0.00000000E+00  0.00000000E+00
  0.00000000E+00  0.00000000E+00  0.00000000E+00
  0.00000000E+00  0.00000000E+00  0.00000000E+00
  0.00000000E+00  0.00000000E+00  0.00000000E+00
  0.00000000E+00  0.00000000E+00  0.00000000E+00
  0.00000000E+00  0.00000000E+00  0.00000000E+00
  0.00000000E+00  0.00000000E+00  0.00000000E+00
  0.00000000E+00  0.00000000E+00  0.00000000E+00
  0.00000000E+00  0.00000000E+00  0.00000000E+00
  0.00000000E+00  0.00000000E+00  0.00000000E+00
  0.00000000E+00  0.00000000E+00  0.00000000E+00
  0.00000000E+00  0.00000000E+00  0.00000000E+00
  0.00000000E+00  0.00000000E+00  0.00000000E+00
  0.00000000E+00  0.00000000E+00  0.00000000E+00
  0.00000000E+00  0.00000000E+00  0.00000000E+00
  0.00000000E+00  0.00000000E+00  0.00000000E+00
  0.00000000E+00  0.00000000E+00  0.00000000E+00
