Sn32 H52 Pb12 C10 S1 I32 N22 O68
1.0
12.835728 0.000000 0.000000
0.000000 13.458082 0.000000
0.000000 0.000000 40.432191
Sn H Pb C S I N O
32 52 12 10 1 32 22 68
direct
0.977594 0.203194 0.295633 Sn
0.967031 0.630525 0.239513 Sn
0.511730 0.149307 0.263984 Sn
0.463181 0.677218 0.259870 Sn
0.180072 0.248748 0.263926 Sn
0.192035 0.702654 0.264634 Sn
0.722802 0.235207 0.275545 Sn
0.767671 0.744836 0.273065 Sn
0.061161 0.457284 0.284514 Sn
0.096939 0.989214 0.284501 Sn
0.567597 0.429372 0.287671 Sn
0.597514 0.939732 0.288482 Sn
0.321528 0.450254 0.277337 Sn
0.343500 0.947615 0.281465 Sn
0.815269 0.462851 0.282723 Sn
0.851051 0.955247 0.298482 Sn
0.987374 0.952841 0.373858 Sn
0.956283 0.493812 0.368915 Sn
0.475032 1.042836 0.346441 Sn
0.456607 0.474122 0.368350 Sn
0.240421 0.932569 0.368407 Sn
0.196618 0.457387 0.361849 Sn
0.719060 0.959292 0.379604 Sn
0.708922 0.458692 0.372249 Sn
0.089822 0.209864 0.390741 Sn
0.052078 0.741434 0.323427 Sn
0.575815 0.232553 0.401003 Sn
0.587493 0.676167 0.331291 Sn
0.324848 0.214246 0.334121 Sn
0.311931 0.696841 0.357937 Sn
0.825507 0.192995 0.361960 Sn
0.823130 0.731377 0.355343 Sn
0.101074 0.244114 0.752946 H
0.305312 0.740045 0.798289 H
0.683990 0.215816 0.732114 H
0.888543 0.738422 0.738360 H
0.121911 0.245643 0.812285 H
0.330869 0.899012 0.774638 H
0.644295 0.327789 0.773566 H
0.831765 0.894600 0.747385 H
0.259391 0.230563 0.806567 H
0.317445 0.855564 0.733409 H
0.765776 0.316533 0.792650 H
0.719182 0.859259 0.768774 H
0.332319 0.229123 0.756092 H
0.261704 0.669084 0.729724 H
0.886955 0.192668 0.766179 H
0.709964 0.663248 0.776343 H
0.257045 0.245926 0.720700 H
0.269263 0.605773 0.768276 H
0.844142 0.133489 0.730549 H
0.814482 0.598601 0.759477 H
0.119592 0.281344 0.592912 H
0.402629 0.778784 0.628407 H
0.768021 0.266635 0.573885 H
0.874174 0.770295 0.641244 H
0.204582 0.421754 0.605605 H
0.440422 0.888373 0.585293 H
0.611468 0.279985 0.602985 H
0.840185 0.875530 0.594092 H
0.322505 0.362646 0.611471 H
0.327541 0.863498 0.564193 H
0.678807 0.320696 0.639258 H
0.750476 0.788446 0.576928 H
0.321296 0.171741 0.602089 H
0.212030 0.734924 0.588160 H
0.872272 0.326498 0.635746 H
0.745029 0.620723 0.605808 H
0.196490 0.119116 0.596356 H
0.246400 0.678849 0.623979 H
0.923149 0.304688 0.597090 H
0.802968 0.618390 0.644106 H
0.525925 0.669647 0.416945 H
0.578049 0.777316 0.406379 H
0.497589 0.937736 0.426305 H
0.403927 0.924599 0.458251 H
0.344204 0.773896 0.476603 H
0.386132 0.665794 0.457018 H
0.754308 0.653630 0.454818 H
0.825883 0.628724 0.418710 H
1.005143 0.657785 0.416458 H
0.066499 0.702146 0.451021 H
0.967771 0.722143 0.501624 H
0.833969 0.730724 0.501854 H
0.988213 0.018496 0.828582 Pb
0.003820 0.575018 0.831252 Pb
0.549789 0.077750 0.822409 Pb
0.515142 0.535340 0.837602 Pb
0.020682 0.038361 0.669013 Pb
0.022632 0.528317 0.685323 Pb
0.500111 0.039603 0.668119 Pb
0.521631 0.542746 0.689885 Pb
0.052368 0.056375 0.515544 Pb
0.060396 0.542994 0.517518 Pb
0.552029 0.118156 0.523518 Pb
0.561971 0.555250 0.529983 Pb
0.178339 0.239892 0.764104 C
0.302765 0.749644 0.771446 C
0.740799 0.231722 0.750240 C
0.816798 0.746327 0.751976 C
0.200544 0.271163 0.600005 C
0.351139 0.784596 0.607060 C
0.765688 0.288103 0.599613 C
0.824608 0.747564 0.620369 C
0.455992 0.794326 0.439453 C
0.907005 0.683673 0.457907 C
0.593638 0.488683 0.448146 S
0.945326 0.240576 0.836884 I
0.087973 0.781764 0.829360 I
0.488356 0.276779 0.850887 I
0.567666 0.742810 0.814305 I
0.328577 1.003861 0.830949 I
0.206168 0.480211 0.849024 I
0.765668 0.947916 0.844661 I
0.744376 0.470226 0.852629 I
1.047581 0.262517 0.675142 I
0.036544 0.749657 0.691227 I
0.431614 0.249670 0.673572 I
0.561662 0.761331 0.684231 I
0.033474 0.016250 0.753095 I
0.972677 0.470801 0.761050 I
0.558682 0.018531 0.744374 I
0.499011 0.454612 0.762883 I
0.282395 0.950544 0.677110 I
0.254718 0.495009 0.689500 I
0.793308 1.009005 0.675133 I
0.739380 0.431816 0.691505 I
0.972119 0.260517 0.528814 I
0.147827 0.754550 0.523852 I
0.462276 0.298660 0.552366 I
0.618877 0.778863 0.531024 I
0.056214 0.973961 0.590254 I
0.047092 0.527138 0.596290 I
0.604476 1.031769 0.590844 I
0.482906 0.536680 0.612853 I
0.336435 1.025008 0.512370 I
0.246174 0.446816 0.489755 I
0.859460 0.993204 0.483181 I
0.776945 0.510948 0.548137 I
0.185607 0.233895 0.796231 N
0.318975 0.838749 0.758846 N
0.716828 0.296848 0.773472 N
0.786761 0.838488 0.756880 N
0.261645 0.239342 0.745106 N
0.275168 0.669126 0.754656 N
0.831103 0.185261 0.748890 N
0.773748 0.662279 0.761544 N
0.246834 0.356390 0.605479 N
0.375243 0.847473 0.584026 N
0.678353 0.291647 0.616021 N
0.807923 0.804771 0.595123 N
0.241681 0.180947 0.601318 N
0.266941 0.727879 0.605653 N
0.858298 0.306329 0.612521 N
0.786960 0.657115 0.623206 N
0.521206 0.744452 0.419054 N
0.462686 0.894144 0.444506 N
0.387543 0.744336 0.458500 N
0.820101 0.666843 0.440785 N
0.997805 0.673504 0.441653 N
0.901507 0.719790 0.488377 N
0.056257 0.628988 0.283681 O
0.120757 0.129042 0.299606 O
0.576955 0.590763 0.286276 O
0.579269 0.083680 0.306150 O
0.315409 0.602608 0.267328 O
0.373965 0.097164 0.302538 O
0.803067 0.596525 0.259443 O
0.819952 0.138997 0.308892 O
0.070475 0.320826 0.305275 O
0.102087 0.827648 0.284023 O
0.575298 0.268197 0.291251 O
0.596184 0.770845 0.283274 O
0.297801 0.303737 0.295232 O
0.358674 0.791689 0.263580 O
0.854968 0.310609 0.287730 O
0.885768 0.804311 0.310678 O
0.956269 0.478840 0.246353 O
0.956577 1.004415 0.262784 O
0.455515 0.426502 0.252756 O
0.485551 0.988956 0.252658 O
0.193853 0.405528 0.249462 O
0.215220 0.998195 0.254357 O
0.695586 0.402746 0.256338 O
0.741554 0.900857 0.266579 O
0.889544 0.767467 0.238853 O
1.022176 0.229381 0.248181 O
0.451638 0.656139 0.203279 O
0.396375 0.221958 0.242465 O
0.120364 0.654292 0.221893 O
0.299747 0.166637 0.241960 O
0.386530 0.577466 0.195840 O
0.670008 0.134025 0.246415 O
0.069229 0.374948 0.375916 O
0.090157 0.838473 0.361107 O
0.570564 0.374155 0.377893 O
0.676117 0.782407 0.367390 O
0.332201 0.369658 0.370221 O
0.305019 0.804960 0.390563 O
0.830830 0.360752 0.374222 O
0.859270 0.866212 0.385518 O
0.115390 0.012284 0.393331 O
0.101554 0.567096 0.381818 O
0.583799 0.017367 0.394249 O
0.583575 0.572271 0.366168 O
0.359043 0.018035 0.377843 O
0.331926 0.561138 0.375198 O
0.853354 0.052619 0.384099 O
0.820895 0.567589 0.375901 O
0.977490 0.192280 0.352261 O
0.962478 0.664550 0.356564 O
0.463717 0.192492 0.356417 O
0.432809 0.706396 0.328422 O
0.213170 0.179816 0.362328 O
0.210347 0.701750 0.320915 O
0.679241 0.184924 0.365589 O
0.744643 0.660043 0.317363 O
0.937520 0.486258 0.316363 O
0.981941 0.995101 0.326780 O
0.443986 0.441413 0.318339 O
0.468489 0.907233 0.320997 O
0.197574 0.487451 0.313574 O
0.228160 0.947001 0.319176 O
0.709038 0.443293 0.322401 O
0.721877 0.945323 0.328968 O
0.697184 0.475022 0.428452 O
0.574113 0.403759 0.468276 O
0.605389 0.583010 0.469750 O
0.509099 0.521253 0.425325 O
