-25.0%_Bond__vac_1_Cd[0. 0. 0.]_-dNELECT
   1.0000000000000000     
    13.0867679999999993    0.0000000000000000    0.0000000000000000
     0.0000000000000000   13.0867679999999993    0.0000000000000000
     0.0000000000000000    0.0000000000000000   13.0867679999999993
   Cd   Te
    31    32
Direct
  0.0138229309026677  0.0042230452797992  0.4961085281177084
  0.0139573470143525  0.5043408069605837 -0.0038803006533056
  0.0028591022710661  0.5039844029831038  0.4958118920139936
  0.5145586802959952  0.0042266734422847  0.9959573773748611
  0.4954371386542093  0.0039910689617414  0.4958653471768883
  0.4954777579056026  0.5042302766658904  0.9959998997895801
  0.5038042946594996  0.5041191917433115  0.4959839925505509
  0.9900066094314282  0.2500430018798108  0.2416922065516193
  0.9729760663793652  0.2791124028003272  0.7210197545247973
 -0.0269554351536760  0.7292193145759343  0.2711686889702737
  0.9896686005661250  0.7582814624597929  0.7496892156422428
  0.5115484751509524  0.2614976353862286  0.2533735004606946
  0.5000936251061153  0.2533198927462685  0.7466921211141594
  0.4999605673114273  0.7548118276938651  0.2452105197885477
  0.5114954182433238  0.7464322119787583  0.7385040285609861
  0.2577487069609842  0.0125871555452543  0.2331557620304044
  0.2581893661382842 -0.0041382526273009  0.7584877477956172
  0.2520829813785934  0.5011727209322983  0.2410652593065073
  0.2516698360623999  0.5074633089805921  0.7506297466232515
  0.7547166177086632  0.0134026383613997  0.2390579759801655
  0.7543504432967024 -0.0049206381041337  0.7526484631088054
  0.7520544204670460  0.5050169746434346  0.2444781496809650
  0.7519150210467277  0.5035197149397875  0.7474026370006344
  0.2580484878181933  0.2415439613421900  0.0041327411165624
  0.2517339994157550  0.2496737945145799  0.4926778306811350
  0.2575901375634209  0.7673505214994705  0.9872371679128975
  0.2516764614486932  0.7587605807715299  0.4989846684735513
  0.7545804773614984  0.2478887695006871  0.0049852669950998
  0.7516047007581832  0.2525299250890091  0.4969054076228192
  0.7544200254616548  0.7611324890831946 -0.0130518376604312
  0.7516048550544134  0.7559032832091706  0.4949300659128725
  0.1279741168213685  0.1297382862236924  0.3640628063286909
  0.1365143250511733  0.0786438666808762  0.9213510747823785
  0.1302732343689475  0.6287153022553049  0.3711908640601995
  0.1278427970812609  0.6362263527571501  0.8702435366749764
  0.6273891990896203  0.1270613481660000  0.3748247393810055
  0.6312764051643116  0.1323175441602196  0.8680197440414977
  0.6266808857963151  0.6303401049865778  0.3696494746975809
  0.6274547145661363  0.6252917647854086  0.8729636987665259
  0.1282542409525768  0.3723837153421657  0.1214523635723617
  0.1301853506161162  0.3796033677719342  0.6205328991433557
  0.1361015338820002  0.9304424821322709  0.0697860238741196
  0.1281484053648079  0.8786774443932570  0.6277985543421505
  0.6272774283915770  0.3832038935557391  0.1190751383978305
  0.6267434388042689  0.3780513009712032  0.6221957207504705
  0.6311308564894481  0.8762606621337992  0.1241254003940971
  0.6271224056217307  0.8810527179980613  0.6170752062411716
  0.3971742100641850  0.1330257258516975  0.1248804258888222
  0.3709284103149503  0.1271440961755546  0.6257424306769263
  0.3707768831728024  0.6345359414012649  0.1184606425947322
  0.3761992568527721  0.6276232300154665  0.6193698641196590
  0.8846902597042977  0.1206744524871174  0.1120066526254357
  0.8770072366268565  0.1230437713014305  0.6188633411821512
  0.8772130432656238  0.6272641834595791  0.1148764349906492
  0.8756501195308277  0.6279217459467084  0.6193238083205338
  0.3763791815337705  0.3806914053436949  0.3723563422818614
  0.3709315948405633  0.3742502784073855  0.8729545303893206
  0.3707287505861890  0.8812522931263844  0.3658315114604589
  0.3973866174906208  0.8752673379509701  0.8669600637070241
  0.8757159048297383  0.3801562679374135  0.3722698863011831
  0.8771628357361818  0.3816024137180057  0.8770429988689235
  0.8772009199550447  0.8854893554177380  0.3730911745412522
  0.8846327207542611  0.8877711839070636  0.8793988220382183

  0.00000000E+00  0.00000000E+00  0.00000000E+00
  0.00000000E+00  0.00000000E+00  0.00000000E+00
  0.00000000E+00  0.00000000E+00  0.00000000E+00
  0.00000000E+00  0.00000000E+00  0.00000000E+00
  0.00000000E+00  0.00000000E+00  0.00000000E+00
  0.00000000E+00  0.00000000E+00  0.00000000E+00
  0.00000000E+00  0.00000000E+00  0.00000000E+00
  0.00000000E+00  0.00000000E+00  0.00000000E+00
  0.00000000E+00  0.00000000E+00  0.00000000E+00
  0.00000000E+00  0.00000000E+00  0.00000000E+00
  0.00000000E+00  0.00000000E+00  0.00000000E+00
  0.00000000E+00  0.00000000E+00  0.00000000E+00
  0.00000000E+00  0.00000000E+00  0.00000000E+00
  0.00000000E+00  0.00000000E+00  0.00000000E+00
  0.00000000E+00  0.00000000E+00  0.00000000E+00
  0.00000000E+00  0.00000000E+00  0.00000000E+00
  0.00000000E+00  0.00000000E+00  0.00000000E+00
  0.00000000E+00  0.00000000E+00  0.00000000E+00
  0.00000000E+00  0.00000000E+00  0.00000000E+00
  0.00000000E+00  0.00000000E+00  0.00000000E+00
  0.00000000E+00  0.00000000E+00  0.00000000E+00
  0.00000000E+00  0.00000000E+00  0.00000000E+00
  0.00000000E+00  0.00000000E+00  0.00000000E+00
  0.00000000E+00  0.00000000E+00  0.00000000E+00
  0.00000000E+00  0.00000000E+00  0.00000000E+00
  0.00000000E+00  0.00000000E+00  0.00000000E+00
  0.00000000E+00  0.00000000E+00  0.00000000E+00
  0.00000000E+00  0.00000000E+00  0.00000000E+00
  0.00000000E+00  0.00000000E+00  0.00000000E+00
  0.00000000E+00  0.00000000E+00  0.00000000E+00
  0.00000000E+00  0.00000000E+00  0.00000000E+00
  0.00000000E+00  0.00000000E+00  0.00000000E+00
  0.00000000E+00  0.00000000E+00  0.00000000E+00
  0.00000000E+00  0.00000000E+00  0.00000000E+00
  0.00000000E+00  0.00000000E+00  0.00000000E+00
  0.00000000E+00  0.00000000E+00  0.00000000E+00
  0.00000000E+00  0.00000000E+00  0.00000000E+00
  0.00000000E+00  0.00000000E+00  0.00000000E+00
  0.00000000E+00  0.00000000E+00  0.00000000E+00
  0.00000000E+00  0.00000000E+00  0.00000000E+00
  0.00000000E+00  0.00000000E+00  0.00000000E+00
  0.00000000E+00  0.00000000E+00  0.00000000E+00
  0.00000000E+00  0.00000000E+00  0.00000000E+00
  0.00000000E+00  0.00000000E+00  0.00000000E+00
  0.00000000E+00  0.00000000E+00  0.00000000E+00
  0.00000000E+00  0.00000000E+00  0.00000000E+00
  0.00000000E+00  0.00000000E+00  0.00000000E+00
  0.00000000E+00  0.00000000E+00  0.00000000E+00
  0.00000000E+00  0.00000000E+00  0.00000000E+00
  0.00000000E+00  0.00000000E+00  0.00000000E+00
  0.00000000E+00  0.00000000E+00  0.00000000E+00
  0.00000000E+00  0.00000000E+00  0.00000000E+00
  0.00000000E+00  0.00000000E+00  0.00000000E+00
  0.00000000E+00  0.00000000E+00  0.00000000E+00
  0.00000000E+00  0.00000000E+00  0.00000000E+00
  0.00000000E+00  0.00000000E+00  0.00000000E+00
  0.00000000E+00  0.00000000E+00  0.00000000E+00
  0.00000000E+00  0.00000000E+00  0.00000000E+00
  0.00000000E+00  0.00000000E+00  0.00000000E+00
  0.00000000E+00  0.00000000E+00  0.00000000E+00
  0.00000000E+00  0.00000000E+00  0.00000000E+00
  0.00000000E+00  0.00000000E+00  0.00000000E+00
  0.00000000E+00  0.00000000E+00  0.00000000E+00
