-2.5%_Bond__vac_1_Cd[0. 0. 0.]_-dNELECT=
   1.0000000000000000     
    13.0867679999999993    0.0000000000000000    0.0000000000000000
     0.0000000000000000   13.0867679999999993    0.0000000000000000
     0.0000000000000000    0.0000000000000000   13.0867679999999993
   Cd   Te
    31    32
Direct
  0.0036535997997647  0.0045562568046130  0.4960115482323936
  0.0038665773408683  0.5046186826865210 -0.0038608487642599
  0.0033736436755650  0.5042425835385901  0.4955997141972877
  0.5036006594224065  0.0044610180086159  0.9958730262484289
  0.5038273012873009  0.0038772278337282  0.4957736474906032
  0.5037868637757826  0.5037710487593692  0.9958123316329596
  0.5035974635006996  0.5043423887608635  0.4959481692077717
  0.9963561617120374  0.2499995008224428  0.2415457372026158
  0.0111416708370153  0.2505938015572922  0.7500284702430723
  0.0117177459656645  0.7586657041187794  0.2417863972619086
  0.9964372111005371  0.7581987013764577  0.7499130307212917
  0.5029979056422916  0.2521473076426623  0.2441341573545848
  0.5047478958789305  0.2516902107116590  0.7476971968142926
  0.5046903536860253  0.7558249818035820  0.2440183715723645
  0.5029101329376414  0.7559836799086642  0.7478770605452020
  0.2470330376498357  0.9999217116169699  0.2415956782427433
  0.2471822981299443  0.0080709935739195  0.7504495229491137
  0.2541653705707924  0.5040495059019575  0.2451663744284031
  0.2540712551113414  0.5042099077704254  0.7469156565680261
  0.7607029469175345  0.0080708171931505  0.2412290452502028
  0.7606604665327829  0.0000232463536750  0.7501209798958617
  0.7538215772214305  0.5044299412634786  0.2447189342125323
  0.7533683141961806  0.5041379374896154  0.7469376873491492
  0.2469951598168074  0.2503023353772664  0.9925461883802317
  0.2537477129611486  0.2529451055183043  0.4954601496771046
  0.2470988122857648  0.7582465732223724  0.0000842987045214
  0.2537503241863113  0.7554925503391117  0.4964485929148337
  0.7607532055190707  0.2502586011304495  0.9995674706200917
  0.7532171910985979  0.2530442902807360  0.4965443836234621
  0.7605031942779913  0.7586209930527215 -0.0078124147140698
  0.7536562967028401  0.7554468943623205  0.4952360512032963
  0.1282631243468645  0.1298034959333807  0.3697118517878892
  0.1194541481439262  0.1210409451020246  0.8795720390052404
  0.1299163875504213  0.6293121164298237  0.3710574535120640
  0.1284748827563091  0.6300570904817739  0.8700519719506827
  0.6294471758306689  0.1280566352501983  0.3693370588588309
  0.6314491994137141  0.1281011435336699  0.8718884985542336
  0.6281791003600655  0.6296097911763485  0.3702316611918176
  0.6292189091597171  0.6307872955773950  0.8720331065323953
  0.1281938264437087  0.3786713918027317  0.1218570884861269
  0.1298968255937234  0.3795263518982415  0.6203593473225359
  0.1192932543337812  0.8882160842784504  0.1117593197850209
  0.1280973947811723  0.8789066099134116  0.6220469897097167
  0.6293434833723632  0.3775971851455565  0.1199758069725706
  0.6276685347049490  0.3787398503682090  0.6215711105516400
  0.6309747174091426  0.8802765831365105  0.1198997682549636
  0.6293361281019584  0.8800540635369253  0.6223456044361266
  0.3762205054612348  0.1282892760712407  0.1201069946693530
  0.3781869058060792  0.1280697943674346  0.6221847961760681
  0.3785144746789530  0.6304352349651038  0.1198867033966940
  0.3794278236562871  0.6299239290236106  0.6214342113857253
  0.8884235724758019  0.1205773030696984  0.1116297396994082
  0.8792352169468315  0.1301136838548401  0.6220132323122192
  0.8794638300547455  0.6304836232895760  0.1217528239061883
  0.8774667086553741  0.6292666496983348  0.6206650005473300
  0.3796184072636413  0.3786048860001743  0.3704530044465040
  0.3784055632284157  0.3772323297121342  0.8716449782225243
  0.3783860233864124  0.8799612220443594  0.3694044178525446
  0.3763163378466272  0.8801206457446547  0.8720392572739446
  0.8773963150758713  0.3789547388867393  0.3709655595974850
  0.8794721462262516  0.3788519878651254  0.8701652687840616
  0.8795632688555703  0.8787943391150829  0.3697876790498378
  0.8883584583385336  0.8877632239469264  0.8795010465022552

  0.00000000E+00  0.00000000E+00  0.00000000E+00
  0.00000000E+00  0.00000000E+00  0.00000000E+00
  0.00000000E+00  0.00000000E+00  0.00000000E+00
  0.00000000E+00  0.00000000E+00  0.00000000E+00
  0.00000000E+00  0.00000000E+00  0.00000000E+00
  0.00000000E+00  0.00000000E+00  0.00000000E+00
  0.00000000E+00  0.00000000E+00  0.00000000E+00
  0.00000000E+00  0.00000000E+00  0.00000000E+00
  0.00000000E+00  0.00000000E+00  0.00000000E+00
  0.00000000E+00  0.00000000E+00  0.00000000E+00
  0.00000000E+00  0.00000000E+00  0.00000000E+00
  0.00000000E+00  0.00000000E+00  0.00000000E+00
  0.00000000E+00  0.00000000E+00  0.00000000E+00
  0.00000000E+00  0.00000000E+00  0.00000000E+00
  0.00000000E+00  0.00000000E+00  0.00000000E+00
  0.00000000E+00  0.00000000E+00  0.00000000E+00
  0.00000000E+00  0.00000000E+00  0.00000000E+00
  0.00000000E+00  0.00000000E+00  0.00000000E+00
  0.00000000E+00  0.00000000E+00  0.00000000E+00
  0.00000000E+00  0.00000000E+00  0.00000000E+00
  0.00000000E+00  0.00000000E+00  0.00000000E+00
  0.00000000E+00  0.00000000E+00  0.00000000E+00
  0.00000000E+00  0.00000000E+00  0.00000000E+00
  0.00000000E+00  0.00000000E+00  0.00000000E+00
  0.00000000E+00  0.00000000E+00  0.00000000E+00
  0.00000000E+00  0.00000000E+00  0.00000000E+00
  0.00000000E+00  0.00000000E+00  0.00000000E+00
  0.00000000E+00  0.00000000E+00  0.00000000E+00
  0.00000000E+00  0.00000000E+00  0.00000000E+00
  0.00000000E+00  0.00000000E+00  0.00000000E+00
  0.00000000E+00  0.00000000E+00  0.00000000E+00
  0.00000000E+00  0.00000000E+00  0.00000000E+00
  0.00000000E+00  0.00000000E+00  0.00000000E+00
  0.00000000E+00  0.00000000E+00  0.00000000E+00
  0.00000000E+00  0.00000000E+00  0.00000000E+00
  0.00000000E+00  0.00000000E+00  0.00000000E+00
  0.00000000E+00  0.00000000E+00  0.00000000E+00
  0.00000000E+00  0.00000000E+00  0.00000000E+00
  0.00000000E+00  0.00000000E+00  0.00000000E+00
  0.00000000E+00  0.00000000E+00  0.00000000E+00
  0.00000000E+00  0.00000000E+00  0.00000000E+00
  0.00000000E+00  0.00000000E+00  0.00000000E+00
  0.00000000E+00  0.00000000E+00  0.00000000E+00
  0.00000000E+00  0.00000000E+00  0.00000000E+00
  0.00000000E+00  0.00000000E+00  0.00000000E+00
  0.00000000E+00  0.00000000E+00  0.00000000E+00
  0.00000000E+00  0.00000000E+00  0.00000000E+00
  0.00000000E+00  0.00000000E+00  0.00000000E+00
  0.00000000E+00  0.00000000E+00  0.00000000E+00
  0.00000000E+00  0.00000000E+00  0.00000000E+00
  0.00000000E+00  0.00000000E+00  0.00000000E+00
  0.00000000E+00  0.00000000E+00  0.00000000E+00
  0.00000000E+00  0.00000000E+00  0.00000000E+00
  0.00000000E+00  0.00000000E+00  0.00000000E+00
  0.00000000E+00  0.00000000E+00  0.00000000E+00
  0.00000000E+00  0.00000000E+00  0.00000000E+00
  0.00000000E+00  0.00000000E+00  0.00000000E+00
  0.00000000E+00  0.00000000E+00  0.00000000E+00
  0.00000000E+00  0.00000000E+00  0.00000000E+00
  0.00000000E+00  0.00000000E+00  0.00000000E+00
  0.00000000E+00  0.00000000E+00  0.00000000E+00
  0.00000000E+00  0.00000000E+00  0.00000000E+00
  0.00000000E+00  0.00000000E+00  0.00000000E+00
