-20.0%_Bond__vac_1_Cd[0. 0. 0.]_-dNELECT
   1.0000000000000000     
    13.0867679999999993    0.0000000000000000    0.0000000000000000
     0.0000000000000000   13.0867679999999993    0.0000000000000000
     0.0000000000000000    0.0000000000000000   13.0867679999999993
   Cd   Te
    31    32
Direct
  0.0029728747982282  0.0046725224218020  0.4960361991652732
  0.0031084647255265  0.5046750565804579 -0.0038603206816399
  0.0026655977817709  0.5041337441168117  0.4958521428126209
  0.5031479666519199  0.0045818390187865  0.9958506236191119
  0.5031760546973204  0.0037616050120573  0.4957102162051923
  0.5031077328980377  0.5036753567815051  0.9957817545310960
  0.5027574516671909  0.5044838486279066  0.4960835636435977
  0.9957691011343422  0.2499817578353216  0.2413238292042473
  0.0097443742328698  0.2505137314223864  0.7502225238870391
  0.0115728606599769  0.7587526133617866  0.2417388410583586
  0.9958787583124765  0.7583279702202639  0.7499201591609745
  0.5022450505989731  0.2521457457557065  0.2442224431637259
  0.5039705789935689  0.2517212018858927  0.7475381121437747
  0.5039961816638323  0.7558180372994565  0.2437668788288337
  0.5021817158427637  0.7561466868658658  0.7479415402172980
  0.2464349940248351  0.9995227582887197  0.2416372733964141
  0.2466171456140649  0.0077437734744048  0.7505295740981420
  0.2535602591947096  0.5038877958985659  0.2453927520829210
  0.2529389542662320  0.5041133755194479  0.7470110922016764
  0.7603532981712015  0.0080746744930006  0.2412018309649773
  0.7599745325890345 -0.0001976870311588  0.7501411315994100
  0.7531435060121912  0.5045125695544378  0.2447584513248930
  0.7525470985731816  0.5042843434919184  0.7468260279032397
  0.2465467234149891  0.2502445216885791  0.9928232603952696
  0.2527472844940514  0.2526703203505405  0.4955354490846725
  0.2464947477414157  0.7582182912138304  0.0004711254620769
  0.2531815689988355  0.7553352546925101  0.4965236078876537
  0.7598475742043758  0.2503695966919355  0.9996717215885347
  0.7526182397280669  0.2530619824540735  0.4962933216864081
  0.7599572481085920  0.7586296739605038 -0.0078425895058833
  0.7529785376992880  0.7554314949443056  0.4951073619253171
  0.1274091467262288  0.1296959621421823  0.3695208922177924
  0.1188651140964527  0.1213135810762472  0.8793683328392516
  0.1292323165499231  0.6292159053312205  0.3711810094333577
  0.1276628467176904  0.6302413990689335  0.8702005008416851
  0.6287746217249209  0.1279913034409593  0.3691620862537618
  0.6307391395743374  0.1281765101815970  0.8717127830339484
  0.6274172302178150  0.6296029393676292  0.3702207194362780
  0.6284886589489576  0.6309412633145965  0.8720263380353036
  0.1274940997186188  0.3787857649981184  0.1217707451356806
  0.1288684686280354  0.3791911998035054  0.6206178436493384
  0.1186123377764065  0.8884471002843218  0.1114013250469078
  0.1274286302734866  0.8789925550080333  0.6218784512326613
  0.6285299925683009  0.3776839921524748  0.1200776509883551
  0.6270285861420704  0.3788239060801277  0.6214241234288275
  0.6306269593511202  0.8803772223228538  0.1198123405543863
  0.6285481624119075  0.8799731457947455  0.6222506867206378
  0.3756364872146521  0.1281868116773078  0.1202154579780050
  0.3774171593643540  0.1279740583949105  0.6221463869028393
  0.3777904059093308  0.6302522466241886  0.1198793150021372
  0.3785419373711986  0.6298359589786894  0.6217853799625147
  0.8877515671053018  0.1207930523640111  0.1113441477632288
  0.8782794918961896  0.1301197712374772  0.6219266420997905
  0.8789285528286420  0.6306779004411479  0.1218434755622463
  0.8768353813283973  0.6293472308180887  0.6206649612650974
  0.3788458727127954  0.3784277778423462  0.3707540554592100
  0.3775467805098767  0.3772725138052443  0.8715120977409606
  0.3777614233829054  0.8797453158434425  0.3693427344544683
  0.3756694426598541  0.8801288135373142  0.8722299764935620
  0.8768947058355396  0.3790006954870985  0.3708383557181631
  0.8784926710770558  0.3791369033001419  0.8701929903312066
  0.8791364238093687  0.8788121670979553  0.3697337408496288
  0.8878539080744220  0.8879845752914657  0.8794545545135589

  0.00000000E+00  0.00000000E+00  0.00000000E+00
  0.00000000E+00  0.00000000E+00  0.00000000E+00
  0.00000000E+00  0.00000000E+00  0.00000000E+00
  0.00000000E+00  0.00000000E+00  0.00000000E+00
  0.00000000E+00  0.00000000E+00  0.00000000E+00
  0.00000000E+00  0.00000000E+00  0.00000000E+00
  0.00000000E+00  0.00000000E+00  0.00000000E+00
  0.00000000E+00  0.00000000E+00  0.00000000E+00
  0.00000000E+00  0.00000000E+00  0.00000000E+00
  0.00000000E+00  0.00000000E+00  0.00000000E+00
  0.00000000E+00  0.00000000E+00  0.00000000E+00
  0.00000000E+00  0.00000000E+00  0.00000000E+00
  0.00000000E+00  0.00000000E+00  0.00000000E+00
  0.00000000E+00  0.00000000E+00  0.00000000E+00
  0.00000000E+00  0.00000000E+00  0.00000000E+00
  0.00000000E+00  0.00000000E+00  0.00000000E+00
  0.00000000E+00  0.00000000E+00  0.00000000E+00
  0.00000000E+00  0.00000000E+00  0.00000000E+00
  0.00000000E+00  0.00000000E+00  0.00000000E+00
  0.00000000E+00  0.00000000E+00  0.00000000E+00
  0.00000000E+00  0.00000000E+00  0.00000000E+00
  0.00000000E+00  0.00000000E+00  0.00000000E+00
  0.00000000E+00  0.00000000E+00  0.00000000E+00
  0.00000000E+00  0.00000000E+00  0.00000000E+00
  0.00000000E+00  0.00000000E+00  0.00000000E+00
  0.00000000E+00  0.00000000E+00  0.00000000E+00
  0.00000000E+00  0.00000000E+00  0.00000000E+00
  0.00000000E+00  0.00000000E+00  0.00000000E+00
  0.00000000E+00  0.00000000E+00  0.00000000E+00
  0.00000000E+00  0.00000000E+00  0.00000000E+00
  0.00000000E+00  0.00000000E+00  0.00000000E+00
  0.00000000E+00  0.00000000E+00  0.00000000E+00
  0.00000000E+00  0.00000000E+00  0.00000000E+00
  0.00000000E+00  0.00000000E+00  0.00000000E+00
  0.00000000E+00  0.00000000E+00  0.00000000E+00
  0.00000000E+00  0.00000000E+00  0.00000000E+00
  0.00000000E+00  0.00000000E+00  0.00000000E+00
  0.00000000E+00  0.00000000E+00  0.00000000E+00
  0.00000000E+00  0.00000000E+00  0.00000000E+00
  0.00000000E+00  0.00000000E+00  0.00000000E+00
  0.00000000E+00  0.00000000E+00  0.00000000E+00
  0.00000000E+00  0.00000000E+00  0.00000000E+00
  0.00000000E+00  0.00000000E+00  0.00000000E+00
  0.00000000E+00  0.00000000E+00  0.00000000E+00
  0.00000000E+00  0.00000000E+00  0.00000000E+00
  0.00000000E+00  0.00000000E+00  0.00000000E+00
  0.00000000E+00  0.00000000E+00  0.00000000E+00
  0.00000000E+00  0.00000000E+00  0.00000000E+00
  0.00000000E+00  0.00000000E+00  0.00000000E+00
  0.00000000E+00  0.00000000E+00  0.00000000E+00
  0.00000000E+00  0.00000000E+00  0.00000000E+00
  0.00000000E+00  0.00000000E+00  0.00000000E+00
  0.00000000E+00  0.00000000E+00  0.00000000E+00
  0.00000000E+00  0.00000000E+00  0.00000000E+00
  0.00000000E+00  0.00000000E+00  0.00000000E+00
  0.00000000E+00  0.00000000E+00  0.00000000E+00
  0.00000000E+00  0.00000000E+00  0.00000000E+00
  0.00000000E+00  0.00000000E+00  0.00000000E+00
  0.00000000E+00  0.00000000E+00  0.00000000E+00
  0.00000000E+00  0.00000000E+00  0.00000000E+00
  0.00000000E+00  0.00000000E+00  0.00000000E+00
  0.00000000E+00  0.00000000E+00  0.00000000E+00
  0.00000000E+00  0.00000000E+00  0.00000000E+00
