vac_1_Cd[0. 0. 0.]_KV=-dNELECT=-1       
   1.00000000000000     
    13.0867679999999993    0.0000000000000000    0.0000000000000000
     0.0000000000000000   13.0867679999999993    0.0000000000000000
     0.0000000000000000    0.0000000000000000   13.0867679999999993
   Cd   Te
    31    32
Direct
 -0.0000239182316909 -0.0001325607306225  0.5004528173828142
  0.0002094220884775  0.4997627739272735  0.0005115039994771
 -0.0002089708254240  0.4996178882524712  0.5000097809171904
  0.5003027134121936 -0.0002204255726679  0.0004778606278335
  0.4999791960304383 -0.0000985145705164  0.4992944760181097
  0.4999235107463202  0.5001221745005412  0.0005548248481770
  0.4998722293201253  0.5002850096093171  0.5003990577006577
 -0.0061723245034937  0.2431785991994267  0.2453584826293287
  0.0049089403635939  0.2439531973000144  0.7542537397048731
  0.0059511508036919  0.7567708496006307  0.2452054181568036
 -0.0050584324749996  0.7559795075711255  0.7542029084975628
  0.4987307640762472  0.2501480815481368  0.2486322100129312
  0.5008271623732258  0.2495063899930559  0.7518265196902576
  0.5011200154183401  0.7501989103593923  0.2485478664660435
  0.4993402917441168  0.7508752285214761  0.7518073653370084
  0.2449181882477723 -0.0074562368792323  0.2450465939127890
  0.2457573866867832  0.0071272817604036  0.7543617815715556
  0.2476541815556202  0.4989578989042215  0.2480519655744378
  0.2479806949112980  0.5008581495326321  0.7525231715245477
  0.7551894448244040  0.0078391831386921  0.2453003351494212
  0.7542208523916694 -0.0071587146444733  0.7543420940575968
  0.7522165596089346  0.5011542593509786  0.2477545440457848
  0.7518844564063709  0.4991837912508144  0.7526075580401378
  0.2448603819506714  0.2432385053151048 -0.0054526160219975
  0.2483612454157346  0.2490382894622537  0.4995383919407742
  0.2449062916227594  0.7564679068229903  0.0058712570299535
  0.2489969094695076  0.7503479910181322  0.5004688943096798
  0.7550430560272806  0.2435087890254022  0.0059107210415750
  0.7508435848970391  0.2495937025928091  0.5005939294386782
  0.7552678824288225  0.7567980782806002 -0.0054675732652362
  0.7517022668371357  0.7505349822912785  0.4993333154215920
  0.1249712697604316  0.1243788321094003  0.3738059325413159
  0.1159802574145827  0.1156750414806425  0.8826646979469764
  0.1244162920931123  0.6253516944062503  0.3741052157528663
  0.1241631037210321  0.6272894015541661  0.8759887742962593
  0.6247588712056316  0.1259744948451006  0.3745416151214152
  0.6262577104624519  0.1244980913859742  0.8749988775440585
  0.6258199185133283  0.6244386601387988  0.3745909828305011
  0.6258625547506671  0.6256552270085510  0.8758658496732920
  0.1240913436852667  0.3720603432925702  0.1245499380816673
  0.1245584543233632  0.3746632394823585  0.6259900043953631
  0.1156538516520300  0.8848820504541868  0.1153893988792974
  0.1255283382700917  0.8753045709358097  0.6260440050270958
  0.6260325432112473  0.3747363505421463  0.1244842147163791
  0.6254279785662911  0.3755643867349317  0.6258456179728209
  0.6268056088063381  0.8756163971155057  0.1255586004144776
  0.6247679186071563  0.8740737976638063  0.6246036602640512
  0.3737445391101121  0.1245161396182880  0.1251084823081024
  0.3754963227888300  0.1257764151112466  0.6248769023886265
  0.3739486593864141  0.6253261323607242  0.1246058370384569
  0.3745439164086915  0.6246576699019857  0.6259714089997580
  0.8843610321142880  0.1151377839004311  0.1154195864725342
  0.8744649571721027  0.1246016559817657  0.6260095473928508
  0.8761122165559149  0.6277629981314266  0.1242019897293002
  0.8754905142040449  0.6251306727532081  0.6260068190679602
  0.3740771342904061  0.3755735180986087  0.3748154903233620
  0.3741071145255747  0.3744888628363462  0.8758421908703784
  0.3750240694068971  0.8741430111031349  0.3743980220274485
  0.3737916550755178  0.8755546134819394  0.8750619814886049
  0.8753418466946874  0.3746555760121708  0.3739947873022255
  0.8758431581996435  0.3726546272259879  0.8759852690574138
  0.8749677388108379  0.8755616772556105  0.3737668263727303
  0.8840839765900490  0.8843151003452643  0.8825882779420500
 
  0.00000000E+00  0.00000000E+00  0.00000000E+00
  0.00000000E+00  0.00000000E+00  0.00000000E+00
  0.00000000E+00  0.00000000E+00  0.00000000E+00
  0.00000000E+00  0.00000000E+00  0.00000000E+00
  0.00000000E+00  0.00000000E+00  0.00000000E+00
  0.00000000E+00  0.00000000E+00  0.00000000E+00
  0.00000000E+00  0.00000000E+00  0.00000000E+00
  0.00000000E+00  0.00000000E+00  0.00000000E+00
  0.00000000E+00  0.00000000E+00  0.00000000E+00
  0.00000000E+00  0.00000000E+00  0.00000000E+00
  0.00000000E+00  0.00000000E+00  0.00000000E+00
  0.00000000E+00  0.00000000E+00  0.00000000E+00
  0.00000000E+00  0.00000000E+00  0.00000000E+00
  0.00000000E+00  0.00000000E+00  0.00000000E+00
  0.00000000E+00  0.00000000E+00  0.00000000E+00
  0.00000000E+00  0.00000000E+00  0.00000000E+00
  0.00000000E+00  0.00000000E+00  0.00000000E+00
  0.00000000E+00  0.00000000E+00  0.00000000E+00
  0.00000000E+00  0.00000000E+00  0.00000000E+00
  0.00000000E+00  0.00000000E+00  0.00000000E+00
  0.00000000E+00  0.00000000E+00  0.00000000E+00
  0.00000000E+00  0.00000000E+00  0.00000000E+00
  0.00000000E+00  0.00000000E+00  0.00000000E+00
  0.00000000E+00  0.00000000E+00  0.00000000E+00
  0.00000000E+00  0.00000000E+00  0.00000000E+00
  0.00000000E+00  0.00000000E+00  0.00000000E+00
  0.00000000E+00  0.00000000E+00  0.00000000E+00
  0.00000000E+00  0.00000000E+00  0.00000000E+00
  0.00000000E+00  0.00000000E+00  0.00000000E+00
  0.00000000E+00  0.00000000E+00  0.00000000E+00
  0.00000000E+00  0.00000000E+00  0.00000000E+00
  0.00000000E+00  0.00000000E+00  0.00000000E+00
  0.00000000E+00  0.00000000E+00  0.00000000E+00
  0.00000000E+00  0.00000000E+00  0.00000000E+00
  0.00000000E+00  0.00000000E+00  0.00000000E+00
  0.00000000E+00  0.00000000E+00  0.00000000E+00
  0.00000000E+00  0.00000000E+00  0.00000000E+00
  0.00000000E+00  0.00000000E+00  0.00000000E+00
  0.00000000E+00  0.00000000E+00  0.00000000E+00
  0.00000000E+00  0.00000000E+00  0.00000000E+00
  0.00000000E+00  0.00000000E+00  0.00000000E+00
  0.00000000E+00  0.00000000E+00  0.00000000E+00
  0.00000000E+00  0.00000000E+00  0.00000000E+00
  0.00000000E+00  0.00000000E+00  0.00000000E+00
  0.00000000E+00  0.00000000E+00  0.00000000E+00
  0.00000000E+00  0.00000000E+00  0.00000000E+00
  0.00000000E+00  0.00000000E+00  0.00000000E+00
  0.00000000E+00  0.00000000E+00  0.00000000E+00
  0.00000000E+00  0.00000000E+00  0.00000000E+00
  0.00000000E+00  0.00000000E+00  0.00000000E+00
  0.00000000E+00  0.00000000E+00  0.00000000E+00
  0.00000000E+00  0.00000000E+00  0.00000000E+00
  0.00000000E+00  0.00000000E+00  0.00000000E+00
  0.00000000E+00  0.00000000E+00  0.00000000E+00
  0.00000000E+00  0.00000000E+00  0.00000000E+00
  0.00000000E+00  0.00000000E+00  0.00000000E+00
  0.00000000E+00  0.00000000E+00  0.00000000E+00
  0.00000000E+00  0.00000000E+00  0.00000000E+00
  0.00000000E+00  0.00000000E+00  0.00000000E+00
  0.00000000E+00  0.00000000E+00  0.00000000E+00
  0.00000000E+00  0.00000000E+00  0.00000000E+00
  0.00000000E+00  0.00000000E+00  0.00000000E+00
  0.00000000E+00  0.00000000E+00  0.00000000E+00
