-40.0%_BDM_Distortion_vac_1_Cd[0. 0. 0.]
   1.00000000000000     
    13.0867679999999993    0.0000000000000000    0.0000000000000000
     0.0000000000000000   13.0867679999999993    0.0000000000000000
     0.0000000000000000    0.0000000000000000   13.0867679999999993
   Cd   Te
    31    32
Direct
  0.0020829525293657  0.9977952206327640  0.5087658370126600
  0.0019272328483101  0.4978013989002844  0.0090449969123258
  0.0009257545918604  0.4969847897383285  0.4896235367549491
  0.5021513310667812  0.9975235853539566  0.0089714023215626
  0.5014350031075673  0.9973131247578095  0.4889783718514867
  0.5013306818637543  0.4979972389076487 -0.0027511406215104
  0.5010994570062092  0.4969859160204665  0.4990922188868374
  0.0088051575609732  0.2350443562028995  0.2540965016805045
  0.0109375651703418  0.2417341777710990  0.7484470010377692
 -0.0064296874655313  0.7610317641603936  0.2517902409532693
  0.9926971628545112  0.7545432560936310  0.7496688886307838
  0.4983944407787795  0.2437322417431845  0.2464451180548854
  0.5009898285205059  0.2460920909017145  0.7479283501296764
  0.5046859647149254  0.7513614301720726  0.2469545951122006
  0.5010616674018461  0.7498279412172717  0.7457173098443671
  0.2386303521028409  0.0061662415910692  0.2518325387794012
  0.2447421350141787  0.0078149404700776  0.7496946635308556
  0.2459396590817834  0.4953370583258967  0.2466435400547108
  0.2492941114264605  0.4991298018372832  0.7463040472673780
  0.7641866419898861 -0.0103424928772395  0.2533599462240722
  0.7578487940209059  0.9884627262352040  0.7482957872994461
  0.7551881502357877  0.5005993238780482  0.2462149668511730
  0.7529963777535919  0.4978841937748928  0.7472153919065275
  0.2465053940589568  0.2437030956061865 -0.0143820292790968
  0.2597369950969335  0.2551560553920920  0.5059289253930381
  0.2772016300964236  0.7234953721106000  0.9674993791155533
  0.2504311351525658  0.7489988467459541  0.4951066294477767
  0.7271284530766824  0.2728800457344335  0.9663609376539473
  0.7507825240744176  0.2470851671617485  0.4966883852297592
  0.7558491708976648  0.7523617883632638 -0.0147693745270200
  0.7449980047265556  0.7400258569808329  0.5060492899002095
  0.1310352453258759  0.1266319598412680  0.3917087217478938
  0.1170737715641940  0.1146132639834865  0.8795886061008652
  0.1238696176462173  0.6282234244589867  0.3657884121400432
  0.1206256802393436  0.6211898472354466  0.8725846593341241
  0.6314311343037675  0.1211602479372742  0.3655538156173221
  0.6245039629623484  0.1162259625381619  0.8715177448201862
  0.6249881753808968  0.6206192107976800  0.3720758469378702
  0.6250220726256989  0.6225913341015417  0.8705962007678442
  0.1262401617397841  0.3656554718505959  0.1240073489667209
  0.1248989649314231  0.3766188523496912  0.6211634406067056
  0.0750196873814080  0.9248316880033736  0.1301910076517377
  0.1294101637566969  0.8702737407867717  0.6265456994312448
  0.6260875064220059  0.3727916912668111  0.1239306131421886
  0.6265764378926403  0.3720155113015142  0.6234583576160170
  0.6336008012847116  0.8719761851816678  0.1238408579623482
  0.6228963433858667  0.8748955526600364  0.6207595811887564
  0.3699150416951166  0.1235011920402862  0.1228980376978335
  0.3808200557741865  0.1207235269240932  0.6216522220334428
  0.3763187323881859  0.6223480380473985  0.1249198209824254
  0.3751516416225957  0.6241860509672329  0.6214238313387201
  0.9264647984711725  0.0728522437896717  0.1313932691658433
  0.8738214323437158  0.1257032131585112  0.6257453088166356
  0.8756603841298354  0.6294835879369057  0.1232638188869273
  0.8788540116037927  0.6187888824111369  0.6224094906038964
  0.3775432616045307  0.3749098847089318  0.3704638257907522
  0.3763146942807646  0.3744623584737641  0.8710147626160520
  0.3710145349789549  0.8746751966345037  0.3649344154969121
  0.3791614607984082  0.8794815795339805  0.8713798971898894
  0.8767241818634092  0.3672771076424257  0.3660861564035845
  0.8835335553722613  0.3756414484153320  0.8713756071533567
  0.8731876329830209  0.8687996381820905  0.3916833136045989
  0.8847318118913047  0.8816325529355739  0.8789130547777391
 
  0.00000000E+00  0.00000000E+00  0.00000000E+00
  0.00000000E+00  0.00000000E+00  0.00000000E+00
  0.00000000E+00  0.00000000E+00  0.00000000E+00
  0.00000000E+00  0.00000000E+00  0.00000000E+00
  0.00000000E+00  0.00000000E+00  0.00000000E+00
  0.00000000E+00  0.00000000E+00  0.00000000E+00
  0.00000000E+00  0.00000000E+00  0.00000000E+00
  0.00000000E+00  0.00000000E+00  0.00000000E+00
  0.00000000E+00  0.00000000E+00  0.00000000E+00
  0.00000000E+00  0.00000000E+00  0.00000000E+00
  0.00000000E+00  0.00000000E+00  0.00000000E+00
  0.00000000E+00  0.00000000E+00  0.00000000E+00
  0.00000000E+00  0.00000000E+00  0.00000000E+00
  0.00000000E+00  0.00000000E+00  0.00000000E+00
  0.00000000E+00  0.00000000E+00  0.00000000E+00
  0.00000000E+00  0.00000000E+00  0.00000000E+00
  0.00000000E+00  0.00000000E+00  0.00000000E+00
  0.00000000E+00  0.00000000E+00  0.00000000E+00
  0.00000000E+00  0.00000000E+00  0.00000000E+00
  0.00000000E+00  0.00000000E+00  0.00000000E+00
  0.00000000E+00  0.00000000E+00  0.00000000E+00
  0.00000000E+00  0.00000000E+00  0.00000000E+00
  0.00000000E+00  0.00000000E+00  0.00000000E+00
  0.00000000E+00  0.00000000E+00  0.00000000E+00
  0.00000000E+00  0.00000000E+00  0.00000000E+00
  0.00000000E+00  0.00000000E+00  0.00000000E+00
  0.00000000E+00  0.00000000E+00  0.00000000E+00
  0.00000000E+00  0.00000000E+00  0.00000000E+00
  0.00000000E+00  0.00000000E+00  0.00000000E+00
  0.00000000E+00  0.00000000E+00  0.00000000E+00
  0.00000000E+00  0.00000000E+00  0.00000000E+00
  0.00000000E+00  0.00000000E+00  0.00000000E+00
  0.00000000E+00  0.00000000E+00  0.00000000E+00
  0.00000000E+00  0.00000000E+00  0.00000000E+00
  0.00000000E+00  0.00000000E+00  0.00000000E+00
  0.00000000E+00  0.00000000E+00  0.00000000E+00
  0.00000000E+00  0.00000000E+00  0.00000000E+00
  0.00000000E+00  0.00000000E+00  0.00000000E+00
  0.00000000E+00  0.00000000E+00  0.00000000E+00
  0.00000000E+00  0.00000000E+00  0.00000000E+00
  0.00000000E+00  0.00000000E+00  0.00000000E+00
  0.00000000E+00  0.00000000E+00  0.00000000E+00
  0.00000000E+00  0.00000000E+00  0.00000000E+00
  0.00000000E+00  0.00000000E+00  0.00000000E+00
  0.00000000E+00  0.00000000E+00  0.00000000E+00
  0.00000000E+00  0.00000000E+00  0.00000000E+00
  0.00000000E+00  0.00000000E+00  0.00000000E+00
  0.00000000E+00  0.00000000E+00  0.00000000E+00
  0.00000000E+00  0.00000000E+00  0.00000000E+00
  0.00000000E+00  0.00000000E+00  0.00000000E+00
  0.00000000E+00  0.00000000E+00  0.00000000E+00
  0.00000000E+00  0.00000000E+00  0.00000000E+00
  0.00000000E+00  0.00000000E+00  0.00000000E+00
  0.00000000E+00  0.00000000E+00  0.00000000E+00
  0.00000000E+00  0.00000000E+00  0.00000000E+00
  0.00000000E+00  0.00000000E+00  0.00000000E+00
  0.00000000E+00  0.00000000E+00  0.00000000E+00
  0.00000000E+00  0.00000000E+00  0.00000000E+00
  0.00000000E+00  0.00000000E+00  0.00000000E+00
  0.00000000E+00  0.00000000E+00  0.00000000E+00
  0.00000000E+00  0.00000000E+00  0.00000000E+00
  0.00000000E+00  0.00000000E+00  0.00000000E+00
  0.00000000E+00  0.00000000E+00  0.00000000E+00
