-12.5%_Bond__vac_1_Cd[0. 0. 0.]_-dNELECT
   1.0000000000000000     
    13.0867679999999993    0.0000000000000000    0.0000000000000000
     0.0000000000000000   13.0867679999999993    0.0000000000000000
     0.0000000000000000    0.0000000000000000   13.0867679999999993
   Cd   Te
    31    32
Direct
  0.0032889332078475  0.0047680517063838  0.4961176846546488
  0.0035381060903336  0.5047465121836472 -0.0039004818235175
  0.0031352162570871  0.5041010873703374  0.4958162630022780
  0.5031842944580530  0.0044324373065068  0.9959068894142875
  0.5034588899260820  0.0037141060445883  0.4957768543843602
  0.5033276173528264  0.5037032235536993  0.9958269508861068
  0.5030436043329014  0.5043993208338922  0.4959800076911500
  0.9961068623245242  0.2500174607761374  0.2414684074594907
  0.0101082198772433  0.2504611180991506  0.7502006013510768
  0.0115258080466165  0.7587075423767561  0.2417017714076726
  0.9958420210620273  0.7583665653067490  0.7500240969211626
  0.5025991912730108  0.2520171950853796  0.2442034874557885
  0.5044898554314106  0.2516591288371815  0.7476843838411794
  0.5043876643857748  0.7558202140077392  0.2439711534193924
  0.5026150921722270  0.7560615329780211  0.7479564692831714
  0.2466036425011184  0.9995415021423419  0.2416015470462330
  0.2467895918925677  0.0079030648343254  0.7504554088475027
  0.2537832728158963  0.5040587718777653  0.2451881318218847
  0.2534121460625915  0.5041686956915657  0.7469532816872516
  0.7603891409138711  0.0077940008719717  0.2412293572037082
  0.7602576788880337 -0.0001723623312679  0.7501584453267277
  0.7534106734056292  0.5044031883872702  0.2446649467959270
  0.7527977910722684  0.5041718223062298  0.7466926050311767
  0.2468747872739334  0.2502558083755478  0.9926799939054074
  0.2533334544973335  0.2528392210683518  0.4954683493972350
  0.2467016127908248  0.7583333073217342  0.0003868199223749
  0.2533718669101256  0.7553759457298800  0.4965674871917134
  0.7602411517352358  0.2503451732011274  0.9994392257298409
  0.7528269818777132  0.2530423795253823  0.4962291013640540
  0.7603008543063183  0.7585539163321924 -0.0080311720591875
  0.7533317609638734  0.7553422964248965  0.4951354473171851
  0.1278601941562138  0.1297975673295986  0.3696542003105715
  0.1191297622146673  0.1212527485273311  0.8795070164601292
  0.1295182040874375  0.6292792107128571  0.3711735794812731
  0.1281074975394640  0.6303338654857203  0.8701083263385245
  0.6290679737269804  0.1279053967257271  0.3692396460151217
  0.6310685143004562  0.1280865249668951  0.8718553601784451
  0.6277309497329108  0.6295970568527816  0.3702795582102756
  0.6287721633282758  0.6308136515804358  0.8720499355840728
  0.1278391260764921  0.3787797465406931  0.1218019302206505
  0.1293182441096613  0.3791043921135000  0.6206448110065945
  0.1187874848879123  0.8884649379978224  0.1115745589664291
  0.1276579448792595  0.8789585643703928  0.6220173841877897
  0.6288395278874668  0.3775413279856396  0.1200266400831693
  0.6272753290596381  0.3787307949614369  0.6213621332960710
  0.6307630868505952  0.8802822075573641  0.1197458437347327
  0.6289722709592460  0.8800079681292047  0.6222610678453300
  0.3758464021231024  0.1282150899719485  0.1202242543580411
  0.3778584313619944  0.1280537027707843  0.6222429112672881
  0.3782079848671758  0.6304130703063603  0.1198846185221485
  0.3790276136554633  0.6299316256713350  0.6216001359695563
  0.8879311696345974  0.1207706242177655  0.1115667835834610
  0.8785977651791007  0.1301494491716822  0.6220108393042610
  0.8791248349756164  0.6305988136799184  0.1217762783382712
  0.8771906114326727  0.6293044954808347  0.6206221491502019
  0.3792325731152934  0.3786059234563370  0.3704539044477493
  0.3780040863494971  0.3772736225911998  0.8715413909353280
  0.3780275191248348  0.8798305601201682  0.3694572141581254
  0.3758561262832772  0.8801975171327102  0.8720837672526578
  0.8771543085871841  0.3790344000521213  0.3708701697036109
  0.8788486642678643  0.3791310909911305  0.8701148032483063
  0.8793085225095729  0.8788961195299413  0.3698122434263669
  0.8880923286307887  0.8881697047928797  0.8795830285381818

  0.00000000E+00  0.00000000E+00  0.00000000E+00
  0.00000000E+00  0.00000000E+00  0.00000000E+00
  0.00000000E+00  0.00000000E+00  0.00000000E+00
  0.00000000E+00  0.00000000E+00  0.00000000E+00
  0.00000000E+00  0.00000000E+00  0.00000000E+00
  0.00000000E+00  0.00000000E+00  0.00000000E+00
  0.00000000E+00  0.00000000E+00  0.00000000E+00
  0.00000000E+00  0.00000000E+00  0.00000000E+00
  0.00000000E+00  0.00000000E+00  0.00000000E+00
  0.00000000E+00  0.00000000E+00  0.00000000E+00
  0.00000000E+00  0.00000000E+00  0.00000000E+00
  0.00000000E+00  0.00000000E+00  0.00000000E+00
  0.00000000E+00  0.00000000E+00  0.00000000E+00
  0.00000000E+00  0.00000000E+00  0.00000000E+00
  0.00000000E+00  0.00000000E+00  0.00000000E+00
  0.00000000E+00  0.00000000E+00  0.00000000E+00
  0.00000000E+00  0.00000000E+00  0.00000000E+00
  0.00000000E+00  0.00000000E+00  0.00000000E+00
  0.00000000E+00  0.00000000E+00  0.00000000E+00
  0.00000000E+00  0.00000000E+00  0.00000000E+00
  0.00000000E+00  0.00000000E+00  0.00000000E+00
  0.00000000E+00  0.00000000E+00  0.00000000E+00
  0.00000000E+00  0.00000000E+00  0.00000000E+00
  0.00000000E+00  0.00000000E+00  0.00000000E+00
  0.00000000E+00  0.00000000E+00  0.00000000E+00
  0.00000000E+00  0.00000000E+00  0.00000000E+00
  0.00000000E+00  0.00000000E+00  0.00000000E+00
  0.00000000E+00  0.00000000E+00  0.00000000E+00
  0.00000000E+00  0.00000000E+00  0.00000000E+00
  0.00000000E+00  0.00000000E+00  0.00000000E+00
  0.00000000E+00  0.00000000E+00  0.00000000E+00
  0.00000000E+00  0.00000000E+00  0.00000000E+00
  0.00000000E+00  0.00000000E+00  0.00000000E+00
  0.00000000E+00  0.00000000E+00  0.00000000E+00
  0.00000000E+00  0.00000000E+00  0.00000000E+00
  0.00000000E+00  0.00000000E+00  0.00000000E+00
  0.00000000E+00  0.00000000E+00  0.00000000E+00
  0.00000000E+00  0.00000000E+00  0.00000000E+00
  0.00000000E+00  0.00000000E+00  0.00000000E+00
  0.00000000E+00  0.00000000E+00  0.00000000E+00
  0.00000000E+00  0.00000000E+00  0.00000000E+00
  0.00000000E+00  0.00000000E+00  0.00000000E+00
  0.00000000E+00  0.00000000E+00  0.00000000E+00
  0.00000000E+00  0.00000000E+00  0.00000000E+00
  0.00000000E+00  0.00000000E+00  0.00000000E+00
  0.00000000E+00  0.00000000E+00  0.00000000E+00
  0.00000000E+00  0.00000000E+00  0.00000000E+00
  0.00000000E+00  0.00000000E+00  0.00000000E+00
  0.00000000E+00  0.00000000E+00  0.00000000E+00
  0.00000000E+00  0.00000000E+00  0.00000000E+00
  0.00000000E+00  0.00000000E+00  0.00000000E+00
  0.00000000E+00  0.00000000E+00  0.00000000E+00
  0.00000000E+00  0.00000000E+00  0.00000000E+00
  0.00000000E+00  0.00000000E+00  0.00000000E+00
  0.00000000E+00  0.00000000E+00  0.00000000E+00
  0.00000000E+00  0.00000000E+00  0.00000000E+00
  0.00000000E+00  0.00000000E+00  0.00000000E+00
  0.00000000E+00  0.00000000E+00  0.00000000E+00
  0.00000000E+00  0.00000000E+00  0.00000000E+00
  0.00000000E+00  0.00000000E+00  0.00000000E+00
  0.00000000E+00  0.00000000E+00  0.00000000E+00
  0.00000000E+00  0.00000000E+00  0.00000000E+00
  0.00000000E+00  0.00000000E+00  0.00000000E+00
