-10.0%_BDM_Distortion_vac_1_Cd[0. 0. 0.]
   1.00000000000000     
    13.0867679999999993    0.0000000000000000    0.0000000000000000
     0.0000000000000000   13.0867679999999993    0.0000000000000000
     0.0000000000000000    0.0000000000000000   13.0867679999999993
   Cd   Te
    31    32
Direct
  0.0019531502253678  0.9979571622664780  0.4981496483064314
  0.0018403717606022  0.4978405590754733  0.9981889365217952
  0.0018179939308963  0.4981988603495082  0.4988903656661430
  0.5018003162967728  0.9978224310804791  0.9979926956613451
  0.5015906788370444  0.9974683143466689  0.4985401837156521
  0.5008638003542546  0.4973465419892137 -0.0017775065718271
  0.5016421997523475  0.4975614286302474  0.4988171787209586
  0.9924466067898071  0.2427665998269093  0.2441574052538994
  0.0044761117373848  0.2437886240242269  0.7527551900208236
  0.0096716420360050  0.7550787813895822  0.2439829310711351
  0.9958963178464144  0.7528922501611974  0.7538642488659898
  0.5000122702736554  0.2474161641482312  0.2474950782848657
  0.5020234511549523  0.2457194892027448  0.7503213809638969
  0.5019424732194049  0.7488174809492049  0.2474043181516833
  0.5017749021313253  0.7482294013129048  0.7502338401773705
  0.2447519863077964  0.9903587507351697  0.2450899258182228
  0.2464774720422021 -0.0000286592959416  0.7529403390458977
  0.2510556097437953  0.4974786659772279  0.2477148775768836
  0.2503364950408613  0.4970470313006558  0.7517719284341287
  0.7574273007769425  0.0057265970691334  0.2443569895367365
  0.7568837322360735  0.9937374894075010  0.7541253146574213
  0.7525771466885739  0.4992187519830727  0.2483218688868058
  0.7524541813844329  0.4975198866278834  0.7499670099679783
  0.2450591069919209  0.2415187600894718 -0.0016858815697853
  0.2500011206676512  0.2461871370765006  0.4987063712036878
  0.2450325166783243  0.7536254446153445  0.0058791383056944
  0.2514546852344149  0.7468393377433641  0.4999706979365490
  0.7567641808963462  0.2437759101178773  0.0065325978106773
  0.7513750275213797  0.2470683222929472  0.4995459971826635
  0.7571805627333926  0.7529722963916909 -0.0026820669138058
  0.7527857860793163  0.7496346250636271  0.4981814540693489
  0.1255975310080513  0.1234132444644852  0.3713908266823071
  0.1182842810596025  0.1151583484420349  0.8790890961540108
  0.1265719296904866  0.6235063369212467  0.3726059753141291
  0.1264146192467016  0.6244131892920609  0.8739004191180295
  0.6260500467801088  0.1236977628106762  0.3726529808460275
  0.6285636442202727  0.1234210894162479  0.8745853718844288
  0.6263717445947857  0.6238643872321563  0.3736278617230417
  0.6283743316102953  0.6242857634326652  0.8747562096352859
  0.1250462893130879  0.3712645616956834  0.1241461222246487
  0.1262165837635277  0.3723179791165628  0.6243498060455236
  0.1161261614878563  0.8843799971616925  0.1118980624851471
  0.1261793910411725  0.8719898746963544  0.6238617959381880
  0.6262021662828665  0.3736599937540179  0.1236327485571475
  0.6259830576424994  0.3728829992428346  0.6242880435340331
  0.6286698454096541  0.8747185121065915  0.1238482826617228
  0.6274633666508475  0.8738044796322911  0.6245154202054216
  0.3747422567189772  0.1208467324434510  0.1240211850045509
  0.3755645610644174  0.1219072767061515  0.6245404792566455
  0.3761267488672388  0.6236358467774685  0.1222335032668988
  0.3766249741680007  0.6215430463638061  0.6250055447023578
  0.8863378869244299  0.1136790745445372  0.1123096043098148
  0.8760345633072006  0.1227044899599262  0.6239722925886930
  0.8786780449160473  0.6249282350720023  0.1240885037720037
  0.8764625610925774  0.6239052733312128  0.6240253794713869
  0.3759763547940040  0.3726635687569537  0.3738485093957268
  0.3746645660638866  0.3692360755971161  0.8750112187033794
  0.3760687936896118  0.8723321978543825  0.3734780937185690
  0.3753003364644973  0.8723824834759185  0.8741088619116053
  0.8758422014156628  0.3732176238110564  0.3739571094246784
  0.8760772831941676  0.3719530900008386  0.8739483295472472
  0.8766755113272128  0.8741812639398878  0.3712890951860349
  0.8853901688205620  0.8818277659991095  0.8819448099720308
 
  0.00000000E+00  0.00000000E+00  0.00000000E+00
  0.00000000E+00  0.00000000E+00  0.00000000E+00
  0.00000000E+00  0.00000000E+00  0.00000000E+00
  0.00000000E+00  0.00000000E+00  0.00000000E+00
  0.00000000E+00  0.00000000E+00  0.00000000E+00
  0.00000000E+00  0.00000000E+00  0.00000000E+00
  0.00000000E+00  0.00000000E+00  0.00000000E+00
  0.00000000E+00  0.00000000E+00  0.00000000E+00
  0.00000000E+00  0.00000000E+00  0.00000000E+00
  0.00000000E+00  0.00000000E+00  0.00000000E+00
  0.00000000E+00  0.00000000E+00  0.00000000E+00
  0.00000000E+00  0.00000000E+00  0.00000000E+00
  0.00000000E+00  0.00000000E+00  0.00000000E+00
  0.00000000E+00  0.00000000E+00  0.00000000E+00
  0.00000000E+00  0.00000000E+00  0.00000000E+00
  0.00000000E+00  0.00000000E+00  0.00000000E+00
  0.00000000E+00  0.00000000E+00  0.00000000E+00
  0.00000000E+00  0.00000000E+00  0.00000000E+00
  0.00000000E+00  0.00000000E+00  0.00000000E+00
  0.00000000E+00  0.00000000E+00  0.00000000E+00
  0.00000000E+00  0.00000000E+00  0.00000000E+00
  0.00000000E+00  0.00000000E+00  0.00000000E+00
  0.00000000E+00  0.00000000E+00  0.00000000E+00
  0.00000000E+00  0.00000000E+00  0.00000000E+00
  0.00000000E+00  0.00000000E+00  0.00000000E+00
  0.00000000E+00  0.00000000E+00  0.00000000E+00
  0.00000000E+00  0.00000000E+00  0.00000000E+00
  0.00000000E+00  0.00000000E+00  0.00000000E+00
  0.00000000E+00  0.00000000E+00  0.00000000E+00
  0.00000000E+00  0.00000000E+00  0.00000000E+00
  0.00000000E+00  0.00000000E+00  0.00000000E+00
  0.00000000E+00  0.00000000E+00  0.00000000E+00
  0.00000000E+00  0.00000000E+00  0.00000000E+00
  0.00000000E+00  0.00000000E+00  0.00000000E+00
  0.00000000E+00  0.00000000E+00  0.00000000E+00
  0.00000000E+00  0.00000000E+00  0.00000000E+00
  0.00000000E+00  0.00000000E+00  0.00000000E+00
  0.00000000E+00  0.00000000E+00  0.00000000E+00
  0.00000000E+00  0.00000000E+00  0.00000000E+00
  0.00000000E+00  0.00000000E+00  0.00000000E+00
  0.00000000E+00  0.00000000E+00  0.00000000E+00
  0.00000000E+00  0.00000000E+00  0.00000000E+00
  0.00000000E+00  0.00000000E+00  0.00000000E+00
  0.00000000E+00  0.00000000E+00  0.00000000E+00
  0.00000000E+00  0.00000000E+00  0.00000000E+00
  0.00000000E+00  0.00000000E+00  0.00000000E+00
  0.00000000E+00  0.00000000E+00  0.00000000E+00
  0.00000000E+00  0.00000000E+00  0.00000000E+00
  0.00000000E+00  0.00000000E+00  0.00000000E+00
  0.00000000E+00  0.00000000E+00  0.00000000E+00
  0.00000000E+00  0.00000000E+00  0.00000000E+00
  0.00000000E+00  0.00000000E+00  0.00000000E+00
  0.00000000E+00  0.00000000E+00  0.00000000E+00
  0.00000000E+00  0.00000000E+00  0.00000000E+00
  0.00000000E+00  0.00000000E+00  0.00000000E+00
  0.00000000E+00  0.00000000E+00  0.00000000E+00
  0.00000000E+00  0.00000000E+00  0.00000000E+00
  0.00000000E+00  0.00000000E+00  0.00000000E+00
  0.00000000E+00  0.00000000E+00  0.00000000E+00
  0.00000000E+00  0.00000000E+00  0.00000000E+00
  0.00000000E+00  0.00000000E+00  0.00000000E+00
  0.00000000E+00  0.00000000E+00  0.00000000E+00
  0.00000000E+00  0.00000000E+00  0.00000000E+00
