-50.0% N(Distort)=2 ~[0.4,0.4,0.4]      
   1.0000000000000000     
    10.7313600000000005    0.0000000000000000    0.0000000000000000
     0.0000000000000000   10.7313600000000005    0.0000000000000000
     0.0000000000000000    0.0000000000000000   10.7313600000000005
   Ce   O 
    32    63
Direct
  0.4999918517013339  0.0029550806876812 -0.0011937269520288
  0.7511274768739363  0.2538660883396902 -0.0011797930127579
  0.7510848886053582  0.0028826058196095  0.2496142269971423
  0.0006085845841661  0.0029365018451652  0.0001533222665932
  0.2503118274811733  0.2528466603488710 -0.0018212484301936
  0.5011708053599671  0.5037440888225733 -0.0016728672395262
  0.7507872810454985  0.7531797346940324  0.0002369546549391
  0.2501430958277405  0.0036498093012481  0.2483469629152549
  0.5060642045525489  0.2482229457034571  0.2415632924561890
  0.7505535632185799  0.5038382871188182  0.2484205307138247
  0.5007753263848659  0.0044417331426614  0.4990144202579487
  0.7500714474551501  0.2534494810109725  0.4990491876903087
  0.7502138395305443  0.0038388204163827  0.7497712623664838
  0.0004132128816524  0.5023841600279890 -0.0011339875749502
  0.2514580125559718  0.7536693284737459 -0.0011671083707152
  0.0009861601877256  0.2525011312316091  0.2483093474279846
  0.2455117621576983  0.5088419559880850  0.2415837086115460
  0.5013805112007947  0.7533699742283765  0.2484384516706315
 -0.0011012519499001  0.0013786746164648  0.4989198600743358
  0.2411851770961694  0.2437919770316038  0.5061974143132575
  0.5104878741375330  0.5134865824444734  0.5063693885418650
  0.7526495452915556  0.7553845604787244  0.4989944936668018
  0.2507597701109470  0.0014103956256023  0.7510053778401486
  0.5013076281857163  0.2529621772018139  0.7474133108958049
  0.7526357711114228  0.5033177471403563  0.7510655440230849
  0.0003801603011626  0.7535951602066159  0.2496499134761014
  0.0015431077219213  0.5032874366655475  0.4990146956336745
  0.2507313409928709  0.7527994688155181  0.4991125783247507
 -0.0011005285514332  0.2532199008176474  0.7509659837723451
  0.2502333034042045  0.5038538854486589  0.7474175448813244
  0.5006782056431852  0.7553447096689629  0.7510725314401765
  0.0012018195948868  0.7526672329370891  0.7498133139698855
  0.8757938230636829  0.3776294341916185  0.3747204126802057
  0.1213401937818800  0.6331236910763248  0.3772175846760580
  0.1238546125993197  0.3756922055057552  0.6271415484242514
  0.6297230207400036  0.6329037086562480  0.3759676657411772
  0.8757783184888986  0.8777102850999091  0.3747482636293958
  0.1221799810977079  0.1244837626459558  0.3758300748236301
  0.6278027659510417  0.3816108417988737  0.6274392750777127
  0.8780008625683559  0.6278792180095150  0.6242358229839416
  0.1257998040556658  0.8758414718625802  0.6244911903414698
  0.8756944678835112  0.3779168266013595  0.8743421601830940
  0.1265784458024956  0.6271576759493707  0.8714503655897712
  0.1197461592543231  0.3746810155944168  0.1188775402741986
  0.3758004739390388  0.8784498061355687  0.3746902684074690
  0.6304223199042699  0.1242440717071536  0.3770408303716369
  0.3782476567772855  0.6305305324722402  0.6274944551924354
  0.6254112806838195  0.8813117743336850  0.6241857494467808
  0.8733621640541934  0.1283766168429681  0.6242060052174637
  0.3756277869775117  0.3778704675693468  0.8634822706375136
  0.6262117826515798  0.6285699007772031  0.8752995178902434
  0.8756116458536165  0.8778746987402297  0.8745023000840009
  0.1253500644540872  0.1274079684933110  0.8751737510446110
  0.6319517625513084  0.3818266565887391  0.1190227689710704
  0.8741213763325389  0.6273879404259251  0.1247753642529353
  0.1259657027638592  0.8801566328323601  0.1247999381446421
  0.3732362191202713  0.1263867014995697  0.6272738560914524
  0.3756786922383608  0.8779998702731354  0.8743956393625936
  0.6249428013759741  0.1289982849860140  0.8713052443834658
  0.3795276080615237  0.6348090230877176  0.1189785200665595
  0.6254315867435984  0.8763233695670213  0.1247377010495646
  0.8773345289068806  0.1280078753560527  0.1246883650329940
  0.3719471501572516  0.1224128640769162  0.1189103464048157
  0.6294932731484376  0.1241456919879691  0.1196545146365518
  0.8758384412612381  0.3776367495556969  0.1251955267003131
  0.8759177479710362  0.1279982503486126  0.3745565297026960
  0.1254988227188649  0.1280951501534640  0.1255985265288894
  0.3758233636030038  0.3786029703904864  0.1198301720954345
  0.6257846960904739  0.6279687835705469  0.1257357403707318
  0.8756839686431742  0.8776119244742790  0.1245306397364140
  0.3709239305835518  0.1391159498105334  0.3780006546242494
  0.6151673930478559  0.3838730906599410  0.3780234544068350
  0.8758101442061312  0.6272483673931503  0.3747034750031413
  0.6236265989448749  0.1311545659539061  0.6233590957606909
  0.8759102144726574  0.3780767559162185  0.6243957433077624
  0.8754366290334451  0.1277357862487863  0.8744667155034735
  0.1217830312485837  0.6325108275204192  0.1197804966422664
  0.3758372816871127  0.8785509359974452  0.1251817855267169
  0.1363242986917040  0.3734593499218406  0.3776810245442518
  0.3808436794309618  0.6181147019820764  0.3780788063135672
  0.6252987201246053  0.8788865069887332  0.3745388696360075
  0.1227626875058222  0.1250949477119047  0.6263578295796706
  0.3758114010440972  0.3786204086079402  0.5972585156477156
  0.6288566159266309  0.6321677889433936  0.6266109298498236
  0.8757930931348455  0.8780835530935897  0.6247427937047642
  0.3760045132088330  0.1282121467076085  0.8729991267939320
  0.6253495919193878  0.3779743443673271  0.8731335126494050
  0.8761931632031900  0.6279914425832734  0.8745797641054246
  0.1261446000653956  0.8783783529955644  0.3747023054768064
  0.1276968582012817  0.6261045035066205  0.6234307755067966
  0.3757006575616452  0.8784113693370865  0.6243623681799774
  0.1259288031705494  0.3781320863701177  0.8729448456239702
  0.3756264494008407  0.6277105526321276  0.8731132267443011
  0.6258034518450059  0.8784962357010981  0.8744778450193138
  0.1254927153001605  0.8774979063189926  0.8746122184131143

  0.00000000E+00  0.00000000E+00  0.00000000E+00
  0.00000000E+00  0.00000000E+00  0.00000000E+00
  0.00000000E+00  0.00000000E+00  0.00000000E+00
  0.00000000E+00  0.00000000E+00  0.00000000E+00
  0.00000000E+00  0.00000000E+00  0.00000000E+00
  0.00000000E+00  0.00000000E+00  0.00000000E+00
  0.00000000E+00  0.00000000E+00  0.00000000E+00
  0.00000000E+00  0.00000000E+00  0.00000000E+00
  0.00000000E+00  0.00000000E+00  0.00000000E+00
  0.00000000E+00  0.00000000E+00  0.00000000E+00
  0.00000000E+00  0.00000000E+00  0.00000000E+00
  0.00000000E+00  0.00000000E+00  0.00000000E+00
  0.00000000E+00  0.00000000E+00  0.00000000E+00
  0.00000000E+00  0.00000000E+00  0.00000000E+00
  0.00000000E+00  0.00000000E+00  0.00000000E+00
  0.00000000E+00  0.00000000E+00  0.00000000E+00
  0.00000000E+00  0.00000000E+00  0.00000000E+00
  0.00000000E+00  0.00000000E+00  0.00000000E+00
  0.00000000E+00  0.00000000E+00  0.00000000E+00
  0.00000000E+00  0.00000000E+00  0.00000000E+00
  0.00000000E+00  0.00000000E+00  0.00000000E+00
  0.00000000E+00  0.00000000E+00  0.00000000E+00
  0.00000000E+00  0.00000000E+00  0.00000000E+00
  0.00000000E+00  0.00000000E+00  0.00000000E+00
  0.00000000E+00  0.00000000E+00  0.00000000E+00
  0.00000000E+00  0.00000000E+00  0.00000000E+00
  0.00000000E+00  0.00000000E+00  0.00000000E+00
  0.00000000E+00  0.00000000E+00  0.00000000E+00
  0.00000000E+00  0.00000000E+00  0.00000000E+00
  0.00000000E+00  0.00000000E+00  0.00000000E+00
  0.00000000E+00  0.00000000E+00  0.00000000E+00
  0.00000000E+00  0.00000000E+00  0.00000000E+00
  0.00000000E+00  0.00000000E+00  0.00000000E+00
  0.00000000E+00  0.00000000E+00  0.00000000E+00
  0.00000000E+00  0.00000000E+00  0.00000000E+00
  0.00000000E+00  0.00000000E+00  0.00000000E+00
  0.00000000E+00  0.00000000E+00  0.00000000E+00
  0.00000000E+00  0.00000000E+00  0.00000000E+00
  0.00000000E+00  0.00000000E+00  0.00000000E+00
  0.00000000E+00  0.00000000E+00  0.00000000E+00
  0.00000000E+00  0.00000000E+00  0.00000000E+00
  0.00000000E+00  0.00000000E+00  0.00000000E+00
  0.00000000E+00  0.00000000E+00  0.00000000E+00
  0.00000000E+00  0.00000000E+00  0.00000000E+00
  0.00000000E+00  0.00000000E+00  0.00000000E+00
  0.00000000E+00  0.00000000E+00  0.00000000E+00
  0.00000000E+00  0.00000000E+00  0.00000000E+00
  0.00000000E+00  0.00000000E+00  0.00000000E+00
  0.00000000E+00  0.00000000E+00  0.00000000E+00
  0.00000000E+00  0.00000000E+00  0.00000000E+00
  0.00000000E+00  0.00000000E+00  0.00000000E+00
  0.00000000E+00  0.00000000E+00  0.00000000E+00
  0.00000000E+00  0.00000000E+00  0.00000000E+00
  0.00000000E+00  0.00000000E+00  0.00000000E+00
  0.00000000E+00  0.00000000E+00  0.00000000E+00
  0.00000000E+00  0.00000000E+00  0.00000000E+00
  0.00000000E+00  0.00000000E+00  0.00000000E+00
  0.00000000E+00  0.00000000E+00  0.00000000E+00
  0.00000000E+00  0.00000000E+00  0.00000000E+00
  0.00000000E+00  0.00000000E+00  0.00000000E+00
  0.00000000E+00  0.00000000E+00  0.00000000E+00
  0.00000000E+00  0.00000000E+00  0.00000000E+00
  0.00000000E+00  0.00000000E+00  0.00000000E+00
  0.00000000E+00  0.00000000E+00  0.00000000E+00
  0.00000000E+00  0.00000000E+00  0.00000000E+00
  0.00000000E+00  0.00000000E+00  0.00000000E+00
  0.00000000E+00  0.00000000E+00  0.00000000E+00
  0.00000000E+00  0.00000000E+00  0.00000000E+00
  0.00000000E+00  0.00000000E+00  0.00000000E+00
  0.00000000E+00  0.00000000E+00  0.00000000E+00
  0.00000000E+00  0.00000000E+00  0.00000000E+00
  0.00000000E+00  0.00000000E+00  0.00000000E+00
  0.00000000E+00  0.00000000E+00  0.00000000E+00
  0.00000000E+00  0.00000000E+00  0.00000000E+00
  0.00000000E+00  0.00000000E+00  0.00000000E+00
  0.00000000E+00  0.00000000E+00  0.00000000E+00
  0.00000000E+00  0.00000000E+00  0.00000000E+00
  0.00000000E+00  0.00000000E+00  0.00000000E+00
  0.00000000E+00  0.00000000E+00  0.00000000E+00
  0.00000000E+00  0.00000000E+00  0.00000000E+00
  0.00000000E+00  0.00000000E+00  0.00000000E+00
  0.00000000E+00  0.00000000E+00  0.00000000E+00
  0.00000000E+00  0.00000000E+00  0.00000000E+00
  0.00000000E+00  0.00000000E+00  0.00000000E+00
  0.00000000E+00  0.00000000E+00  0.00000000E+00
  0.00000000E+00  0.00000000E+00  0.00000000E+00
  0.00000000E+00  0.00000000E+00  0.00000000E+00
  0.00000000E+00  0.00000000E+00  0.00000000E+00
  0.00000000E+00  0.00000000E+00  0.00000000E+00
  0.00000000E+00  0.00000000E+00  0.00000000E+00
  0.00000000E+00  0.00000000E+00  0.00000000E+00
  0.00000000E+00  0.00000000E+00  0.00000000E+00
  0.00000000E+00  0.00000000E+00  0.00000000E+00
  0.00000000E+00  0.00000000E+00  0.00000000E+00
  0.00000000E+00  0.00000000E+00  0.00000000E+00
