50.0%__num_neighbours=2__v_Cd_s0
1.0
  13.0867679999999993    0.0000000000000000    0.0000000000000000
   0.0000000000000000   13.0867679999999993    0.0000000000000000
   0.0000000000000000    0.0000000000000000   13.0867679999999993
Cd Te
31 32
direct
   0.0068450422011870    0.0213562600873102    0.4966792930578369 Cd2+
   0.0030735085862656    0.5290363598295407   -0.0032922374388097 Cd2+
  -0.0141036088049817    0.5057936273801382    0.4838582750973615 Cd2+
   0.5062702784113143    0.0160922813382123   -0.0272182346396193 Cd2+
   0.4944666038859213    0.0166912780948503    0.4679594554669854 Cd2+
   0.5390948591869785    0.5125247151658879   -0.0079920886437544 Cd2+
   0.4891025553774953    0.4755085389318854    0.4911001257674522 Cd2+
   0.0015295762327974    0.2426659159074364    0.2375401289191001 Cd2+
   0.0066735733449913    0.2521432586772777    0.7096972632852727 Cd2+
   0.0084382433534893    0.7247643512439204    0.2360723408847422 Cd2+
  -0.0177635691864476    0.7229312507782746    0.7605613795557931 Cd2+
   0.4951125768397911    0.2536469169062774    0.2360182837547925 Cd2+
   0.5136286450158503    0.2564788886286405    0.7492152598338307 Cd2+
   0.4921558103716258    0.7444277363764477    0.2598662458625230 Cd2+
   0.5277195523340477    0.7364393541282519    0.7292618617586771 Cd2+
   0.2593094518479811   -0.0080823100845669    0.2789054199313438 Cd2+
   0.2645171751674334    0.0084849868219386    0.7476281041029116 Cd2+
   0.2728223979679781    0.4781181197794703    0.2432512045990097 Cd2+
   0.2306920269590179    0.5078991471620572    0.7794980070395616 Cd2+
   0.7138867510332261    0.0027885829295064    0.2194664125916930 Cd2+
   0.7707483471474033    0.0092056233238779    0.7702890676407027 Cd2+
   0.7349254418093324    0.5091740121654313    0.2615908720553235 Cd2+
   0.7364558995409444    0.4916902082672581    0.7244201158134114 Cd2+
   0.2792760765292541    0.2443045551821275   -0.0290044487504271 Cd2+
   0.2840605773240618    0.2721527672793013    0.4817608379127898 Cd2+
   0.2459134102293151    0.7870026536637201    0.0126997172478194 Cd2+
   0.2540834777580741    0.7620997720888845    0.4949903848479968 Cd2+
   0.7477449571600997    0.2639160879066060    0.0264063019425833 Cd2+
   0.8021682021583575    0.2695929173156517    0.5365105825411224 Cd2+
   0.7479002761634904    0.7441813497752779    0.0034254000573929 Cd2+
   0.7591258903667856    0.7461459872714701    0.5199231238223355 Cd2+
   0.1182334145194233    0.1513081127381088    0.4122321256392531 Te2-
   0.1875020921195232    0.1875020921195232    0.8124979078804767 Te2-
   0.1293889567128106    0.5806027603052785    0.3526409044451627 Te2-
   0.0867718030654649    0.6348699527762529    0.8828055613685399 Te2-
   0.6028239026609068    0.1657471771132452    0.3698936215523049 Te2-
   0.6323692481829455    0.1695731213934134    0.8625866554264997 Te2-
   0.6268581171710199    0.6238119857146547    0.3812020308804447 Te2-
   0.6353054911771295    0.6261684191096267    0.8767082692053562 Te2-
   0.1539979145637914    0.3546730503497385    0.1601723711995375 Te2-
   0.1288891466178476    0.3815635223174299    0.6369597835711780 Te2-
   0.1875020921195232    0.8124979078804767    0.1875020921195232 Te2-
   0.1074736490870495    0.8992996331699747    0.6267897537633995 Te2-
   0.6212643184390506    0.3781484991715079    0.1172480985529080 Te2-
   0.6409123176636146    0.3507121619534285    0.6010387191037097 Te2-
   0.5973040236382676    0.8873998073907157    0.1260157910307779 Te2-
   0.6278638038324599    0.8927138802439830    0.6452398652092612 Te2-
   0.3860240960108259    0.1078450061076689    0.1429993914422540 Te2-
   0.3170373142982727    0.1374885701118283    0.5957713149702878 Te2-
   0.3461226534522375    0.6149972852646668    0.1129771909727666 Te2-
   0.3558516488014670    0.6066362369707886    0.5857675563909650 Te2-
   0.8608373685071142    0.1587187058601093    0.1482233415293310 Te2-
   0.8705833753307248    0.1383896615077892    0.6483680709095977 Te2-
   0.8845753044355561    0.6443417011791910    0.0852761308347416 Te2-
   0.8716031628727542    0.6099798031181205    0.6374517843439874 Te2-
   0.3674477962881222    0.3468957505420106    0.3462628370170502 Te2-
   0.4018101425864797    0.3479913122827433    0.8930398524226942 Te2-
   0.3560951345705559    0.8763443227224956    0.3887272552611661 Te2-
   0.3640674921272051    0.8867407817577118    0.8920927715431444 Te2-
   0.8929659108324614    0.3634889283145583    0.3737859703846895 Te2-
   0.8956061183609351    0.3896687229561422    0.8936132497013548 Te2-
   0.9043034614482578    0.8658563361568367    0.3743970524768649 Te2-
   0.8676994331409583    0.8398969536876270    0.9067306352822030 Te2-
