-37.5%_Bond__vac_1_Cd[0. 0. 0.]_-dNELECT
   1.0000000000000000     
    13.0867679999999993    0.0000000000000000    0.0000000000000000
     0.0000000000000000   13.0867679999999993    0.0000000000000000
     0.0000000000000000    0.0000000000000000   13.0867679999999993
   Cd   Te
    31    32
Direct
  0.0133983877701165  0.0041942757520168  0.4960729803629674
  0.0134351114368844  0.5043993779847182 -0.0039063904533285
  0.0024336139472185  0.5040947721363542  0.4957693053470447
  0.5140353673618678  0.0042869092345501  0.9959992800366114
  0.4948287770033363  0.0040981104564848  0.4957350544580730
  0.4949309783979421  0.5041842554320692  0.9958845859544584
  0.5034447623589852  0.5042227633479964  0.4959774469927782
  0.9896086087800026  0.2499684362334310  0.2417372839267417
  0.9723614543581556  0.2791604379136250  0.7209327590662677
  0.9724785126068978  0.7292455320161322  0.2711380646311297
  0.9893042089711673  0.7582894951297651  0.7498291281507597
  0.5109807985769192  0.2616454044298688  0.2532610258113130
  0.4996736016428032  0.2534013932590338  0.7465723267599446
  0.4996198237037828  0.7546935631357907  0.2452410221866258
  0.5109531389734198  0.7466422594621945  0.7385073392137612
  0.2571177883961309  0.0124225161064568  0.2331137824527683
  0.2576303867113147 -0.0041141522236360  0.7585727295197262
  0.2515289774267138  0.5011269634518185  0.2411280821805878
  0.2511917211176612  0.5072425521521318  0.7505848868161608
  0.7541224801269992  0.0135184285200617  0.2391405926490289
  0.7538172274307949 -0.0049295455467090  0.7526780167136495
  0.7516169247909052  0.5048955926756432  0.2444640578256503
  0.7514509644815859  0.5034594186000712  0.7473728626329297
  0.2574574640798933  0.2414856101772867  0.0041593123361038
  0.2512761916250277  0.2498605176261530  0.4926086102040369
  0.2570597349869701  0.7671405348420804  0.9873757138048639
  0.2512590041576134  0.7587439756383082  0.4991489881202883
  0.7540175617176990  0.2477960246234148  0.0050854967224394
  0.7511835614067974  0.2524578190476450  0.4968009193822096
  0.7538962091867454  0.7610783102348382 -0.0131387357584473
  0.7513501308022695  0.7559459768321853  0.4951211132602069
  0.1275904417981742  0.1297575078210167  0.3641088417581129
  0.1358012943257325  0.0786252220891448  0.9213783794363952
  0.1297849747905281  0.6288900069865710  0.3711057568374778
  0.1274716651649793  0.6361281143417520  0.8702360123359816
  0.6267574604533007  0.1272394991232854  0.3746857232066063
  0.6307186472049110  0.1323842878562652  0.8679844499073264
  0.6264565242728868  0.6302956151334996  0.3697498526664485
  0.6268637850741854  0.6252654266905558  0.8728915792439805
  0.1276459903831499  0.3723010889117417  0.1213778818077980
  0.1297545097163162  0.3796595452751376  0.6204447274336711
  0.1354363244689366  0.9302488615848091  0.0698059138356121
  0.1276332961509354  0.8786686367573314  0.6278921036986330
  0.6267878820985716  0.3832697113434147  0.1189954257573849
  0.6263646602594604  0.3781017805748114  0.6220602945021286
  0.6306816585990994  0.8762766371585812  0.1240444835360124
  0.6265594496713274  0.8811865102159973  0.6170373260004975
  0.3964950655406891  0.1329392482512116  0.1248895076877955
  0.3703795871097811  0.1271786227778028  0.6257341376402750
  0.3703448288299038  0.6343894775009645  0.1184988478554537
  0.3758104921589184  0.6275826934138837  0.6194860950024477
  0.8842482631583041  0.1207390305787509  0.1121405765980808
  0.8763988444196359  0.1229662224817185  0.6188073327504566
  0.8766572800351123  0.6272972468672231  0.1148194422497739
  0.8752513492689211  0.6279023163204146  0.6195169467939288
  0.3759497294580554  0.3808163521372247  0.3723329908315481
  0.3704326953816484  0.3741673846085471  0.8729624296090593
  0.3702459017922257  0.8811336651116646  0.3658014983563463
  0.3968099613964235  0.8752935697887110  0.8671322398056658
  0.8753387259036434  0.3801758294115581  0.3722429541144278
  0.8766513433180111  0.3815379189557924  0.8770791597336621
  0.8766801017820075  0.8855321435965874  0.3730427049080990
  0.8841287916796179  0.8878362976522490  0.8794467427915817

  0.00000000E+00  0.00000000E+00  0.00000000E+00
  0.00000000E+00  0.00000000E+00  0.00000000E+00
  0.00000000E+00  0.00000000E+00  0.00000000E+00
  0.00000000E+00  0.00000000E+00  0.00000000E+00
  0.00000000E+00  0.00000000E+00  0.00000000E+00
  0.00000000E+00  0.00000000E+00  0.00000000E+00
  0.00000000E+00  0.00000000E+00  0.00000000E+00
  0.00000000E+00  0.00000000E+00  0.00000000E+00
  0.00000000E+00  0.00000000E+00  0.00000000E+00
  0.00000000E+00  0.00000000E+00  0.00000000E+00
  0.00000000E+00  0.00000000E+00  0.00000000E+00
  0.00000000E+00  0.00000000E+00  0.00000000E+00
  0.00000000E+00  0.00000000E+00  0.00000000E+00
  0.00000000E+00  0.00000000E+00  0.00000000E+00
  0.00000000E+00  0.00000000E+00  0.00000000E+00
  0.00000000E+00  0.00000000E+00  0.00000000E+00
  0.00000000E+00  0.00000000E+00  0.00000000E+00
  0.00000000E+00  0.00000000E+00  0.00000000E+00
  0.00000000E+00  0.00000000E+00  0.00000000E+00
  0.00000000E+00  0.00000000E+00  0.00000000E+00
  0.00000000E+00  0.00000000E+00  0.00000000E+00
  0.00000000E+00  0.00000000E+00  0.00000000E+00
  0.00000000E+00  0.00000000E+00  0.00000000E+00
  0.00000000E+00  0.00000000E+00  0.00000000E+00
  0.00000000E+00  0.00000000E+00  0.00000000E+00
  0.00000000E+00  0.00000000E+00  0.00000000E+00
  0.00000000E+00  0.00000000E+00  0.00000000E+00
  0.00000000E+00  0.00000000E+00  0.00000000E+00
  0.00000000E+00  0.00000000E+00  0.00000000E+00
  0.00000000E+00  0.00000000E+00  0.00000000E+00
  0.00000000E+00  0.00000000E+00  0.00000000E+00
  0.00000000E+00  0.00000000E+00  0.00000000E+00
  0.00000000E+00  0.00000000E+00  0.00000000E+00
  0.00000000E+00  0.00000000E+00  0.00000000E+00
  0.00000000E+00  0.00000000E+00  0.00000000E+00
  0.00000000E+00  0.00000000E+00  0.00000000E+00
  0.00000000E+00  0.00000000E+00  0.00000000E+00
  0.00000000E+00  0.00000000E+00  0.00000000E+00
  0.00000000E+00  0.00000000E+00  0.00000000E+00
  0.00000000E+00  0.00000000E+00  0.00000000E+00
  0.00000000E+00  0.00000000E+00  0.00000000E+00
  0.00000000E+00  0.00000000E+00  0.00000000E+00
  0.00000000E+00  0.00000000E+00  0.00000000E+00
  0.00000000E+00  0.00000000E+00  0.00000000E+00
  0.00000000E+00  0.00000000E+00  0.00000000E+00
  0.00000000E+00  0.00000000E+00  0.00000000E+00
  0.00000000E+00  0.00000000E+00  0.00000000E+00
  0.00000000E+00  0.00000000E+00  0.00000000E+00
  0.00000000E+00  0.00000000E+00  0.00000000E+00
  0.00000000E+00  0.00000000E+00  0.00000000E+00
  0.00000000E+00  0.00000000E+00  0.00000000E+00
  0.00000000E+00  0.00000000E+00  0.00000000E+00
  0.00000000E+00  0.00000000E+00  0.00000000E+00
  0.00000000E+00  0.00000000E+00  0.00000000E+00
  0.00000000E+00  0.00000000E+00  0.00000000E+00
  0.00000000E+00  0.00000000E+00  0.00000000E+00
  0.00000000E+00  0.00000000E+00  0.00000000E+00
  0.00000000E+00  0.00000000E+00  0.00000000E+00
  0.00000000E+00  0.00000000E+00  0.00000000E+00
  0.00000000E+00  0.00000000E+00  0.00000000E+00
  0.00000000E+00  0.00000000E+00  0.00000000E+00
  0.00000000E+00  0.00000000E+00  0.00000000E+00
  0.00000000E+00  0.00000000E+00  0.00000000E+00
