-22.5%_Bond__vac_1_Cd[0. 0. 0.]_-dNELECT
   1.0000000000000000     
    13.0867679999999993    0.0000000000000000    0.0000000000000000
     0.0000000000000000   13.0867679999999993    0.0000000000000000
     0.0000000000000000    0.0000000000000000   13.0867679999999993
   Cd   Te
    31    32
Direct
  0.0139076020514358  0.0042030991000207  0.4961461255623310
  0.0140586153734372  0.5042815843011694 -0.0039374759507997
  0.0030878709422458  0.5037296464884317  0.4960655682615767
  0.5145582494137090  0.0042996651668101  0.9960753819514125
  0.4954722035221010  0.0040375016948750  0.4957694970220338
  0.4955222374027269  0.5042334851231330  0.9959792340739896
  0.5040495129513982  0.5041839696006085  0.4960161887667597
  0.9901559143792769  0.2501778513480536  0.2416960654320933
  0.9728049796986697  0.2790177683045477  0.7211023166750434
 -0.0269369553006324  0.7290655422818777  0.2713032257355074
  0.9900142760200669  0.7582154826215226  0.7495669840034621
  0.5116768453383050  0.2617444810745783  0.2535444244564354
  0.5002628962062492  0.2534046410095469  0.7466882028718363
  0.5000996494585291  0.7548006045821928  0.2451748768021034
  0.5115274001393345  0.7466002220313500  0.7384511334114875
  0.2577337684772149  0.0126836475593272  0.2329406275161751
  0.2582763187509328 -0.0041655726154974  0.7584719840949179
  0.2522022048875746  0.5012126461885905  0.2411726198658443
  0.2518279969874977  0.5074792264329900  0.7505723030914592
  0.7548862696680573  0.0134118276252512  0.2390775351627041
  0.7544632998993639 -0.0048526772135727  0.7525656334720899
  0.7521152286800493  0.5049513159897284  0.2444093996935250
  0.7519686504526157  0.5035569190443676  0.7473952788164029
  0.2581551547363901  0.2415975152816572  0.0041274868221644
  0.2517480793986239  0.2496753384098341  0.4926534121353931
  0.2576101203927237  0.7673122245890688  0.9873013058987468
  0.2518112231017255  0.7587324896669955  0.4989186089594437
  0.7546177802822537  0.2478170112542355  0.0050414143200404
  0.7517614138153625  0.2525268179551010  0.4966749274142088
  0.7546257519621337  0.7610648345948051 -0.0131825282058879
  0.7518416332934951  0.7557940684359414  0.4950950671902828
  0.1280120199394135  0.1297366255794088  0.3640427704409605
  0.1366074455999124  0.0787128038574860  0.9213035026503635
  0.1302969894326707  0.6284964416786599  0.3714135702417559
  0.1279890409201380  0.6362142335194244  0.8702765548045895
  0.6274625262053471  0.1270900546065609  0.3747094315564289
  0.6313214089682836  0.1322867207260962  0.8680214638385855
  0.6268883688026572  0.6303269368250833  0.3696570922310977
  0.6274564573547700  0.6253007267102479  0.8729120239862583
  0.1283885566815705  0.3724164866770979  0.1214344648587516
  0.1302649295846405  0.3792873850045833  0.6208723601192984
  0.1360659740346849  0.9304017678204447  0.0697326647869366
  0.1283357476450203  0.8786408141929632  0.6277223371855563
  0.6273067474363165  0.3832302955108933  0.1190510881420047
  0.6269428859841735  0.3780292450756513  0.6221231355079462
  0.6313357235050392  0.8762527542681602  0.1240265018380286
  0.6272056241022451  0.8811036411436858  0.6170341882769874
  0.3972975294109783  0.1332214947680516  0.1249272135180950
  0.3710616446495955  0.1271718241626224  0.6257524798777904
  0.3708316607607174  0.6345084349427939  0.1184945412289100
  0.3763188813512099  0.6276446367776917  0.6193238600028493
  0.8848509827870542  0.1208312035359702  0.1120735525396273
  0.8769787445596302  0.1229847724395939  0.6187745626791195
  0.8773699941883184  0.6272227206102849  0.1148363127199637
  0.8758486279230591  0.6278014607844647  0.6194236263571364
  0.3764126360189032  0.3807912927753316  0.3724544800824314
  0.3710263353243008  0.3742770855921365  0.8729352931752469
  0.3707594780383288  0.8813061905164394  0.3656975787620904
  0.3974146789984959  0.8753422204332670  0.8670675645346679
  0.8758880649800289  0.3802743377018281  0.3722638823542498
  0.8771539588202782  0.3815605233699775  0.8771059541385114
  0.8773195647051092  0.8854139639225460  0.3731665108460010
  0.8847755789042641  0.8877717265430121  0.8791926113949969

  0.00000000E+00  0.00000000E+00  0.00000000E+00
  0.00000000E+00  0.00000000E+00  0.00000000E+00
  0.00000000E+00  0.00000000E+00  0.00000000E+00
  0.00000000E+00  0.00000000E+00  0.00000000E+00
  0.00000000E+00  0.00000000E+00  0.00000000E+00
  0.00000000E+00  0.00000000E+00  0.00000000E+00
  0.00000000E+00  0.00000000E+00  0.00000000E+00
  0.00000000E+00  0.00000000E+00  0.00000000E+00
  0.00000000E+00  0.00000000E+00  0.00000000E+00
  0.00000000E+00  0.00000000E+00  0.00000000E+00
  0.00000000E+00  0.00000000E+00  0.00000000E+00
  0.00000000E+00  0.00000000E+00  0.00000000E+00
  0.00000000E+00  0.00000000E+00  0.00000000E+00
  0.00000000E+00  0.00000000E+00  0.00000000E+00
  0.00000000E+00  0.00000000E+00  0.00000000E+00
  0.00000000E+00  0.00000000E+00  0.00000000E+00
  0.00000000E+00  0.00000000E+00  0.00000000E+00
  0.00000000E+00  0.00000000E+00  0.00000000E+00
  0.00000000E+00  0.00000000E+00  0.00000000E+00
  0.00000000E+00  0.00000000E+00  0.00000000E+00
  0.00000000E+00  0.00000000E+00  0.00000000E+00
  0.00000000E+00  0.00000000E+00  0.00000000E+00
  0.00000000E+00  0.00000000E+00  0.00000000E+00
  0.00000000E+00  0.00000000E+00  0.00000000E+00
  0.00000000E+00  0.00000000E+00  0.00000000E+00
  0.00000000E+00  0.00000000E+00  0.00000000E+00
  0.00000000E+00  0.00000000E+00  0.00000000E+00
  0.00000000E+00  0.00000000E+00  0.00000000E+00
  0.00000000E+00  0.00000000E+00  0.00000000E+00
  0.00000000E+00  0.00000000E+00  0.00000000E+00
  0.00000000E+00  0.00000000E+00  0.00000000E+00
  0.00000000E+00  0.00000000E+00  0.00000000E+00
  0.00000000E+00  0.00000000E+00  0.00000000E+00
  0.00000000E+00  0.00000000E+00  0.00000000E+00
  0.00000000E+00  0.00000000E+00  0.00000000E+00
  0.00000000E+00  0.00000000E+00  0.00000000E+00
  0.00000000E+00  0.00000000E+00  0.00000000E+00
  0.00000000E+00  0.00000000E+00  0.00000000E+00
  0.00000000E+00  0.00000000E+00  0.00000000E+00
  0.00000000E+00  0.00000000E+00  0.00000000E+00
  0.00000000E+00  0.00000000E+00  0.00000000E+00
  0.00000000E+00  0.00000000E+00  0.00000000E+00
  0.00000000E+00  0.00000000E+00  0.00000000E+00
  0.00000000E+00  0.00000000E+00  0.00000000E+00
  0.00000000E+00  0.00000000E+00  0.00000000E+00
  0.00000000E+00  0.00000000E+00  0.00000000E+00
  0.00000000E+00  0.00000000E+00  0.00000000E+00
  0.00000000E+00  0.00000000E+00  0.00000000E+00
  0.00000000E+00  0.00000000E+00  0.00000000E+00
  0.00000000E+00  0.00000000E+00  0.00000000E+00
  0.00000000E+00  0.00000000E+00  0.00000000E+00
  0.00000000E+00  0.00000000E+00  0.00000000E+00
  0.00000000E+00  0.00000000E+00  0.00000000E+00
  0.00000000E+00  0.00000000E+00  0.00000000E+00
  0.00000000E+00  0.00000000E+00  0.00000000E+00
  0.00000000E+00  0.00000000E+00  0.00000000E+00
  0.00000000E+00  0.00000000E+00  0.00000000E+00
  0.00000000E+00  0.00000000E+00  0.00000000E+00
  0.00000000E+00  0.00000000E+00  0.00000000E+00
  0.00000000E+00  0.00000000E+00  0.00000000E+00
  0.00000000E+00  0.00000000E+00  0.00000000E+00
  0.00000000E+00  0.00000000E+00  0.00000000E+00
  0.00000000E+00  0.00000000E+00  0.00000000E+00
