-10.0%_Bond__vac_1_Cd[0. 0. 0.]_-dNELECT
   1.0000000000000000     
    13.0867679999999993    0.0000000000000000    0.0000000000000000
     0.0000000000000000   13.0867679999999993    0.0000000000000000
     0.0000000000000000    0.0000000000000000   13.0867679999999993
   Cd   Te
    31    32
Direct
  0.0033242130734919  0.0046616814156496  0.4960418607082379
  0.0035493268136790  0.5047567907930189 -0.0038432190654340
  0.0030907682007402  0.5041253067756710  0.4956914371024225
  0.5033920042104668  0.0044572371147096  0.9959372183104570
  0.5035695977884838  0.0037026551194126  0.4956977142147757
  0.5035936727175193  0.5037260805874679  0.9957263538848573
  0.5032524307381143  0.5044817957239358  0.4960166879962457
  0.9961422934035509  0.2500077218074406  0.2413975212033085
  0.0105059335505583  0.2506272916927210  0.7501542390846733
  0.0117606703469925  0.7587083651022983  0.2417537577605280
  0.9961148646355319  0.7582276478820322  0.7500257692857488
  0.5027669886137801  0.2521199085242676  0.2441745546662849
  0.5044170594356170  0.2515407475729953  0.7476206936587168
  0.5043973858147107  0.7558413175167669  0.2438406585257720
  0.5026387381963457  0.7561425856326655  0.7478956596565272
  0.2467828722926897  0.9997072152806092  0.2415771638278313
  0.2469041923920912  0.0079485501680954  0.7505699473000707
  0.2539564858014657  0.5040634516121247  0.2452946261164589
  0.2536598212673113  0.5041645837239238  0.7469618131561343
  0.7605461649789628  0.0078612050038202  0.2411290186225565
  0.7604059322564333 -0.0001654314054695  0.7501591136694307
  0.7535823705440313  0.5044547850884570  0.2446930981139139
  0.7529371503518596  0.5042187291086592  0.7468316908485156
  0.2467624853464861  0.2503788469486364  0.9927388410302173
  0.2533299638220129  0.2527486010744030  0.4954370719406335
  0.2468239993342206  0.7582227350773845  0.0002388643448966
  0.2534916427993593  0.7554997977421011  0.4965484875506769
  0.7602787425553237  0.2503551562939507  0.9994491984886201
  0.7528386142754749  0.2530437270923575  0.4964079997663355
  0.7602746310194770  0.7586375855692710 -0.0078868451365699
  0.7533634999027122  0.7554194634340531  0.4951056197993286
  0.1279357198205939  0.1297199670418168  0.3696142388953174
  0.1191376790126429  0.1213079865256969  0.8796137150129917
  0.1296334762825718  0.6292341520295535  0.3711739991456339
  0.1282368650367960  0.6301453794410365  0.8701067405721892
  0.6291437513472430  0.1278956983021345  0.3692286059370747
  0.6311084510320167  0.1280536201955249  0.8717942796239491
  0.6278231138892379  0.6296041467354216  0.3701687134623329
  0.6289152378669662  0.6308893744673889  0.8720397990357747
  0.1278983902978051  0.3788560015882810  0.1218696471610470
  0.1294675254761099  0.3792884534981174  0.6205211504729644
  0.1189728719397220  0.8883096509746411  0.1115948571822278
  0.1277310566907871  0.8789514446048055  0.6220551791354663
  0.6290018155774749  0.3776443013296304  0.1200341902275811
  0.6272901304968290  0.3787508035448058  0.6215312942200641
  0.6307909490985609  0.8802545386369989  0.1198152533146185
  0.6289996430634494  0.8799982798953129  0.6222638177186277
  0.3759785947691169  0.1283026675515408  0.1202373969590082
  0.3778286394659662  0.1278769344246006  0.6220976631986344
  0.3782747113618222  0.6303522134786300  0.1198093694535028
  0.3791637571707569  0.6299327383188154  0.6215968486367859
  0.8880637783283173  0.1208028926919748  0.1114646813958140
  0.8787623340750980  0.1302140302597143  0.6220232995614186
  0.8792200202235501  0.6307065644644582  0.1218929002469857
  0.8771739313665884  0.6292620122156447  0.6206712137678382
  0.3793791809014073  0.3786016073587084  0.3705846394865017
  0.3780995029160695  0.3772288070556470  0.8715666269379155
  0.3780157405437895  0.8797875205793420  0.3693209737580982
  0.3760373345604218  0.8801356999642647  0.8722035037921848
  0.8771717138065130  0.3788949537021500  0.3709256461020036
  0.8790383147887929  0.3791206954564215  0.8701520354665497
  0.8794500913918004  0.8787969718248153  0.3697302133781096
  0.8881461609217132  0.8878377567686752  0.8796108903086369

  0.00000000E+00  0.00000000E+00  0.00000000E+00
  0.00000000E+00  0.00000000E+00  0.00000000E+00
  0.00000000E+00  0.00000000E+00  0.00000000E+00
  0.00000000E+00  0.00000000E+00  0.00000000E+00
  0.00000000E+00  0.00000000E+00  0.00000000E+00
  0.00000000E+00  0.00000000E+00  0.00000000E+00
  0.00000000E+00  0.00000000E+00  0.00000000E+00
  0.00000000E+00  0.00000000E+00  0.00000000E+00
  0.00000000E+00  0.00000000E+00  0.00000000E+00
  0.00000000E+00  0.00000000E+00  0.00000000E+00
  0.00000000E+00  0.00000000E+00  0.00000000E+00
  0.00000000E+00  0.00000000E+00  0.00000000E+00
  0.00000000E+00  0.00000000E+00  0.00000000E+00
  0.00000000E+00  0.00000000E+00  0.00000000E+00
  0.00000000E+00  0.00000000E+00  0.00000000E+00
  0.00000000E+00  0.00000000E+00  0.00000000E+00
  0.00000000E+00  0.00000000E+00  0.00000000E+00
  0.00000000E+00  0.00000000E+00  0.00000000E+00
  0.00000000E+00  0.00000000E+00  0.00000000E+00
  0.00000000E+00  0.00000000E+00  0.00000000E+00
  0.00000000E+00  0.00000000E+00  0.00000000E+00
  0.00000000E+00  0.00000000E+00  0.00000000E+00
  0.00000000E+00  0.00000000E+00  0.00000000E+00
  0.00000000E+00  0.00000000E+00  0.00000000E+00
  0.00000000E+00  0.00000000E+00  0.00000000E+00
  0.00000000E+00  0.00000000E+00  0.00000000E+00
  0.00000000E+00  0.00000000E+00  0.00000000E+00
  0.00000000E+00  0.00000000E+00  0.00000000E+00
  0.00000000E+00  0.00000000E+00  0.00000000E+00
  0.00000000E+00  0.00000000E+00  0.00000000E+00
  0.00000000E+00  0.00000000E+00  0.00000000E+00
  0.00000000E+00  0.00000000E+00  0.00000000E+00
  0.00000000E+00  0.00000000E+00  0.00000000E+00
  0.00000000E+00  0.00000000E+00  0.00000000E+00
  0.00000000E+00  0.00000000E+00  0.00000000E+00
  0.00000000E+00  0.00000000E+00  0.00000000E+00
  0.00000000E+00  0.00000000E+00  0.00000000E+00
  0.00000000E+00  0.00000000E+00  0.00000000E+00
  0.00000000E+00  0.00000000E+00  0.00000000E+00
  0.00000000E+00  0.00000000E+00  0.00000000E+00
  0.00000000E+00  0.00000000E+00  0.00000000E+00
  0.00000000E+00  0.00000000E+00  0.00000000E+00
  0.00000000E+00  0.00000000E+00  0.00000000E+00
  0.00000000E+00  0.00000000E+00  0.00000000E+00
  0.00000000E+00  0.00000000E+00  0.00000000E+00
  0.00000000E+00  0.00000000E+00  0.00000000E+00
  0.00000000E+00  0.00000000E+00  0.00000000E+00
  0.00000000E+00  0.00000000E+00  0.00000000E+00
  0.00000000E+00  0.00000000E+00  0.00000000E+00
  0.00000000E+00  0.00000000E+00  0.00000000E+00
  0.00000000E+00  0.00000000E+00  0.00000000E+00
  0.00000000E+00  0.00000000E+00  0.00000000E+00
  0.00000000E+00  0.00000000E+00  0.00000000E+00
  0.00000000E+00  0.00000000E+00  0.00000000E+00
  0.00000000E+00  0.00000000E+00  0.00000000E+00
  0.00000000E+00  0.00000000E+00  0.00000000E+00
  0.00000000E+00  0.00000000E+00  0.00000000E+00
  0.00000000E+00  0.00000000E+00  0.00000000E+00
  0.00000000E+00  0.00000000E+00  0.00000000E+00
  0.00000000E+00  0.00000000E+00  0.00000000E+00
  0.00000000E+00  0.00000000E+00  0.00000000E+00
  0.00000000E+00  0.00000000E+00  0.00000000E+00
  0.00000000E+00  0.00000000E+00  0.00000000E+00
