Kpoints from DefectsWithTheBoys.vasp_gam_files
0
Gamma
1 1 1
