-15.0%_Bond__vac_1_Cd[0. 0. 0.]_-dNELECT
   1.0000000000000000     
    13.0867679999999993    0.0000000000000000    0.0000000000000000
     0.0000000000000000   13.0867679999999993    0.0000000000000000
     0.0000000000000000    0.0000000000000000   13.0867679999999993
   Cd   Te
    31    32
Direct
  0.0031394246387801  0.0047472776272018  0.4960620913243823
  0.0034363021360579  0.5047755976425721 -0.0038950574448449
  0.0029819461869803  0.5041473829614301  0.4957641945516045
  0.5032463195120461  0.0044439368783037  0.9958733809533424
  0.5033441752695393  0.0036902495873636  0.4958160529056579
  0.5032452044020769  0.5037092622392655  0.9958035328244529
  0.5029401544264844  0.5043630132017295  0.4959838613282034
  0.9961008684134857  0.2500261098197148  0.2414712477088862
  0.0099644758813623  0.2504984054100599  0.7502308872028411
  0.0114796861346404  0.7587394287227017  0.2417063888767502
  0.9958043000111199  0.7583634662718393  0.7499184350337325
  0.5024370765798962  0.2520082217880051  0.2442640143230667
  0.5043758663664769  0.2517216959166758  0.7476549985282552
  0.5042903264086077  0.7558650840566606  0.2438709225960728
  0.5024234153952863  0.7560423364551674  0.7479919546304543
  0.2465698066187774  0.9995968560687761  0.2415989099563045
  0.2467143508615480  0.0078667054857441  0.7504610111118238
  0.2537580814503212  0.5039527903832136  0.2453174622024842
  0.2532614980788862  0.5041941965379341  0.7469565184673413
  0.7603758548149877  0.0078998299854670  0.2412237480520973
  0.7602368688249975 -0.0001603837458115  0.7501193696639800
  0.7533334527455285  0.5044303953790594  0.2446537276531772
  0.7527483895929579  0.5041787005462418  0.7467628072301096
  0.2467102180009537  0.2502758491159966  0.9926491407090733
  0.2530906554870302  0.2527705098365505  0.4955824839744804
  0.2465981998035756  0.7583163655566658  0.0003352665408398
  0.2532811536288874  0.7554029870901713  0.4965582235892624
  0.7601077216811732  0.2502972899205804  0.9994663804968466
  0.7527127110757883  0.2530606545408463  0.4961427007433806
  0.7602395714409629  0.7585781070150315 -0.0080648628698111
  0.7531848697195405  0.7553387132567805  0.4951607671175782
  0.1277194188315799  0.1297756713043809  0.3696682599360285
  0.1190354060054498  0.1211938350596373  0.8794790675556307
  0.1294481918482648  0.6292688403947339  0.3711707952417282
  0.1279712706060823  0.6303635474134323  0.8700785040561554
  0.6289271575598568  0.1278575295629439  0.3692291155423085
  0.6310196969953976  0.1280609898179071  0.8717706433622677
  0.6275236800390716  0.6295699568076327  0.3702317678174919
  0.6286857991981171  0.6308093464633995  0.8720656226808768
  0.1277800771406540  0.3787862472928756  0.1218080347358258
  0.1291465926329951  0.3791677343017172  0.6206694431365374
  0.1187728889142826  0.8884661122980669  0.1116503770303636
  0.1275645004793461  0.8789461868211926  0.6219361140582960
  0.6287221932112599  0.3775247439718433  0.1200336831662848
  0.6272486012301507  0.3787675926607217  0.6213598663755034
  0.6307620430639441  0.8802936633115626  0.1197416031413063
  0.6287907411705902  0.8799724463396883  0.6223546105664691
  0.3757622623581430  0.1282264558460646  0.1201135131319273
  0.3777157828582500  0.1280932158552715  0.6222843142024813
  0.3780451598768134  0.6304188047091219  0.1199252225583138
  0.3788814801042860  0.6298697374981022  0.6216900923680299
  0.8878771651371841  0.1208367657730794  0.1115556020631634
  0.8784834562270303  0.1301792299199723  0.6219637728583013
  0.8790486077888514  0.6306046414463068  0.1217765634360434
  0.8770557817026606  0.6292888045108342  0.6206630159677649
  0.3790087689576105  0.3784414400597446  0.3705392660069782
  0.3779047977509202  0.3773247201451883  0.8715271091189561
  0.3779442390355643  0.8798761447237726  0.3693822624692384
  0.3757997872556547  0.8801635543886802  0.8721456300453120
  0.8771004171562187  0.3790560658634760  0.3708325965977916
  0.8787619332247455  0.3791055576581723  0.8702243010172945
  0.8791767957651931  0.8788354433474733  0.3698274530208945
  0.8880273602850932  0.8881579388810668  0.8795612167526267

  0.00000000E+00  0.00000000E+00  0.00000000E+00
  0.00000000E+00  0.00000000E+00  0.00000000E+00
  0.00000000E+00  0.00000000E+00  0.00000000E+00
  0.00000000E+00  0.00000000E+00  0.00000000E+00
  0.00000000E+00  0.00000000E+00  0.00000000E+00
  0.00000000E+00  0.00000000E+00  0.00000000E+00
  0.00000000E+00  0.00000000E+00  0.00000000E+00
  0.00000000E+00  0.00000000E+00  0.00000000E+00
  0.00000000E+00  0.00000000E+00  0.00000000E+00
  0.00000000E+00  0.00000000E+00  0.00000000E+00
  0.00000000E+00  0.00000000E+00  0.00000000E+00
  0.00000000E+00  0.00000000E+00  0.00000000E+00
  0.00000000E+00  0.00000000E+00  0.00000000E+00
  0.00000000E+00  0.00000000E+00  0.00000000E+00
  0.00000000E+00  0.00000000E+00  0.00000000E+00
  0.00000000E+00  0.00000000E+00  0.00000000E+00
  0.00000000E+00  0.00000000E+00  0.00000000E+00
  0.00000000E+00  0.00000000E+00  0.00000000E+00
  0.00000000E+00  0.00000000E+00  0.00000000E+00
  0.00000000E+00  0.00000000E+00  0.00000000E+00
  0.00000000E+00  0.00000000E+00  0.00000000E+00
  0.00000000E+00  0.00000000E+00  0.00000000E+00
  0.00000000E+00  0.00000000E+00  0.00000000E+00
  0.00000000E+00  0.00000000E+00  0.00000000E+00
  0.00000000E+00  0.00000000E+00  0.00000000E+00
  0.00000000E+00  0.00000000E+00  0.00000000E+00
  0.00000000E+00  0.00000000E+00  0.00000000E+00
  0.00000000E+00  0.00000000E+00  0.00000000E+00
  0.00000000E+00  0.00000000E+00  0.00000000E+00
  0.00000000E+00  0.00000000E+00  0.00000000E+00
  0.00000000E+00  0.00000000E+00  0.00000000E+00
  0.00000000E+00  0.00000000E+00  0.00000000E+00
  0.00000000E+00  0.00000000E+00  0.00000000E+00
  0.00000000E+00  0.00000000E+00  0.00000000E+00
  0.00000000E+00  0.00000000E+00  0.00000000E+00
  0.00000000E+00  0.00000000E+00  0.00000000E+00
  0.00000000E+00  0.00000000E+00  0.00000000E+00
  0.00000000E+00  0.00000000E+00  0.00000000E+00
  0.00000000E+00  0.00000000E+00  0.00000000E+00
  0.00000000E+00  0.00000000E+00  0.00000000E+00
  0.00000000E+00  0.00000000E+00  0.00000000E+00
  0.00000000E+00  0.00000000E+00  0.00000000E+00
  0.00000000E+00  0.00000000E+00  0.00000000E+00
  0.00000000E+00  0.00000000E+00  0.00000000E+00
  0.00000000E+00  0.00000000E+00  0.00000000E+00
  0.00000000E+00  0.00000000E+00  0.00000000E+00
  0.00000000E+00  0.00000000E+00  0.00000000E+00
  0.00000000E+00  0.00000000E+00  0.00000000E+00
  0.00000000E+00  0.00000000E+00  0.00000000E+00
  0.00000000E+00  0.00000000E+00  0.00000000E+00
  0.00000000E+00  0.00000000E+00  0.00000000E+00
  0.00000000E+00  0.00000000E+00  0.00000000E+00
  0.00000000E+00  0.00000000E+00  0.00000000E+00
  0.00000000E+00  0.00000000E+00  0.00000000E+00
  0.00000000E+00  0.00000000E+00  0.00000000E+00
  0.00000000E+00  0.00000000E+00  0.00000000E+00
  0.00000000E+00  0.00000000E+00  0.00000000E+00
  0.00000000E+00  0.00000000E+00  0.00000000E+00
  0.00000000E+00  0.00000000E+00  0.00000000E+00
  0.00000000E+00  0.00000000E+00  0.00000000E+00
  0.00000000E+00  0.00000000E+00  0.00000000E+00
  0.00000000E+00  0.00000000E+00  0.00000000E+00
  0.00000000E+00  0.00000000E+00  0.00000000E+00
