-60.0%_BDM_Distortion_vac_1_Cd[0. 0. 0.]
   1.00000000000000     
    13.0867679999999993    0.0000000000000000    0.0000000000000000
     0.0000000000000000   13.0867679999999993    0.0000000000000000
     0.0000000000000000    0.0000000000000000   13.0867679999999993
   Cd   Te
    31    32
Direct
  0.0009856150163316 -0.0017086833491061  0.4987323636371931
  0.0013809880895115  0.4980444636156008 -0.0010526575915513
 -0.0005886751858435  0.4997320439109156  0.4972015554184742
  0.5012177650359819 -0.0020583625273955 -0.0019298409647744
  0.4988176735236321  0.9987693565036529  0.4975210930010204
  0.4999118264308051  0.4989339901050498 -0.0032048184412406
  0.5006884434085388  0.4983150007550338  0.4977947584703532
  0.9934483498662731  0.2437509404195085  0.2446020752120976
  0.0057091247480288  0.2436959300559868  0.7531809175282099
  0.0042813583591756  0.7553368385297070  0.2421565594664098
  0.9935904996392587  0.7552216835851008  0.7540397212894817
  0.5002153853522677  0.2484781310698660  0.2464360272388660
  0.5011404378958410  0.2476123595550323  0.7501452621706582
  0.5001005232128938  0.7498653046274634  0.2463541509067735
  0.4997447076771266  0.7489692674984897  0.7472087958022251
  0.2452415487125223  0.9945042932824352  0.2426004587934478
  0.2454800011962901  0.0066278943085243  0.7538467556209925
  0.2491042802461139  0.4988027879162280  0.2463267769800857
  0.2478110610514314  0.5004995489904607  0.7485497938566776
  0.7550781725647270  0.0067842699907242  0.2441242299777985
  0.7548772181886062  0.9912766103745996  0.7533639809981635
  0.7511951921034368  0.5001374369922770  0.2461104830053329
  0.7523496318675100  0.4977755363291735  0.7498752095622258
  0.2451290392623426  0.2435262478802405 -0.0076748749587735
  0.2490895039595227  0.2485175426211916  0.4974656702583614
  0.2452388017799564  0.7557987818239625  0.0024786661167477
  0.2476555975790957  0.7505440557791687  0.4977709541443159
  0.7559406662806796  0.2427657461266363  0.0045188186239996
  0.7514655868140075  0.2473776762009625  0.4998359777603044
  0.7547496938747882  0.7551962126109457 -0.0084790941219927
  0.7514590292143735  0.7494418745983304  0.4972047786269800
  0.1251460028273871  0.1240566277306217  0.3722616877402022
  0.1161287889425941  0.1151744570492513  0.8825189373030501
  0.1241977680839088  0.6249995904605997  0.3712430906101863
  0.1244637075201634  0.6258938351331790  0.8741060148860015
  0.6250006886465769  0.1245075524226287  0.3737524123605165
  0.6275518965805310  0.1235288309879518  0.8739284329667463
  0.6252666567664740  0.6240827749911338  0.3724117043584524
  0.6258725668335736  0.6241803130109245  0.8727244790876281
  0.1250505153808697  0.3713322580488235  0.1240188410360309
  0.1242258645923438  0.3740790847058596  0.6232447370457814
  0.1169957267507165  0.8838292243331756  0.1144788737042907
  0.1256632278511972  0.8742944312704627  0.6256930746447710
  0.6260948928465812  0.3739079052130495  0.1219882479831771
  0.6257121211277149  0.3738805890768667  0.6242554280483217
  0.6273442711324401  0.8741463619713928  0.1240136800769876
  0.6252984668224676  0.8740736903212851  0.6223367678361597
  0.3747409117428220  0.1240471158156419  0.1223204451232226
  0.3750710494713221  0.1245252383551479  0.6237757427399553
  0.3742393703474721  0.6247583779290017  0.1216667856660804
  0.3742239368961870  0.6238283391264691  0.6218642572708734
  0.8849066631363167  0.1148151519744493  0.1156142767857019
  0.8756911647552106  0.1231461119401898  0.6254609236447777
  0.8754443964014844  0.6257064008827353  0.1217437096631722
  0.8757015726750881  0.6243823724104448  0.6241760421198614
  0.3752822128313649  0.3741234620347889  0.3724104694940402
  0.3739395569072584  0.3739713550435054  0.8728083495450670
  0.3740000785904179  0.8740181035134147  0.3719196936653703
  0.3748913398729943  0.8741691177416731  0.8722491504819510
  0.8742901454245802  0.3740967852889891  0.3731634832234484
  0.8762339054900208  0.3717916278244137  0.8745800459256307
  0.8754686549269993  0.8745275248535935  0.3719793398085399
  0.8844038300596666  0.8838976083575786  0.8828703267651173
 
  0.00000000E+00  0.00000000E+00  0.00000000E+00
  0.00000000E+00  0.00000000E+00  0.00000000E+00
  0.00000000E+00  0.00000000E+00  0.00000000E+00
  0.00000000E+00  0.00000000E+00  0.00000000E+00
  0.00000000E+00  0.00000000E+00  0.00000000E+00
  0.00000000E+00  0.00000000E+00  0.00000000E+00
  0.00000000E+00  0.00000000E+00  0.00000000E+00
  0.00000000E+00  0.00000000E+00  0.00000000E+00
  0.00000000E+00  0.00000000E+00  0.00000000E+00
  0.00000000E+00  0.00000000E+00  0.00000000E+00
  0.00000000E+00  0.00000000E+00  0.00000000E+00
  0.00000000E+00  0.00000000E+00  0.00000000E+00
  0.00000000E+00  0.00000000E+00  0.00000000E+00
  0.00000000E+00  0.00000000E+00  0.00000000E+00
  0.00000000E+00  0.00000000E+00  0.00000000E+00
  0.00000000E+00  0.00000000E+00  0.00000000E+00
  0.00000000E+00  0.00000000E+00  0.00000000E+00
  0.00000000E+00  0.00000000E+00  0.00000000E+00
  0.00000000E+00  0.00000000E+00  0.00000000E+00
  0.00000000E+00  0.00000000E+00  0.00000000E+00
  0.00000000E+00  0.00000000E+00  0.00000000E+00
  0.00000000E+00  0.00000000E+00  0.00000000E+00
  0.00000000E+00  0.00000000E+00  0.00000000E+00
  0.00000000E+00  0.00000000E+00  0.00000000E+00
  0.00000000E+00  0.00000000E+00  0.00000000E+00
  0.00000000E+00  0.00000000E+00  0.00000000E+00
  0.00000000E+00  0.00000000E+00  0.00000000E+00
  0.00000000E+00  0.00000000E+00  0.00000000E+00
  0.00000000E+00  0.00000000E+00  0.00000000E+00
  0.00000000E+00  0.00000000E+00  0.00000000E+00
  0.00000000E+00  0.00000000E+00  0.00000000E+00
  0.00000000E+00  0.00000000E+00  0.00000000E+00
  0.00000000E+00  0.00000000E+00  0.00000000E+00
  0.00000000E+00  0.00000000E+00  0.00000000E+00
  0.00000000E+00  0.00000000E+00  0.00000000E+00
  0.00000000E+00  0.00000000E+00  0.00000000E+00
  0.00000000E+00  0.00000000E+00  0.00000000E+00
  0.00000000E+00  0.00000000E+00  0.00000000E+00
  0.00000000E+00  0.00000000E+00  0.00000000E+00
  0.00000000E+00  0.00000000E+00  0.00000000E+00
  0.00000000E+00  0.00000000E+00  0.00000000E+00
  0.00000000E+00  0.00000000E+00  0.00000000E+00
  0.00000000E+00  0.00000000E+00  0.00000000E+00
  0.00000000E+00  0.00000000E+00  0.00000000E+00
  0.00000000E+00  0.00000000E+00  0.00000000E+00
  0.00000000E+00  0.00000000E+00  0.00000000E+00
  0.00000000E+00  0.00000000E+00  0.00000000E+00
  0.00000000E+00  0.00000000E+00  0.00000000E+00
  0.00000000E+00  0.00000000E+00  0.00000000E+00
  0.00000000E+00  0.00000000E+00  0.00000000E+00
  0.00000000E+00  0.00000000E+00  0.00000000E+00
  0.00000000E+00  0.00000000E+00  0.00000000E+00
  0.00000000E+00  0.00000000E+00  0.00000000E+00
  0.00000000E+00  0.00000000E+00  0.00000000E+00
  0.00000000E+00  0.00000000E+00  0.00000000E+00
  0.00000000E+00  0.00000000E+00  0.00000000E+00
  0.00000000E+00  0.00000000E+00  0.00000000E+00
  0.00000000E+00  0.00000000E+00  0.00000000E+00
  0.00000000E+00  0.00000000E+00  0.00000000E+00
  0.00000000E+00  0.00000000E+00  0.00000000E+00
  0.00000000E+00  0.00000000E+00  0.00000000E+00
  0.00000000E+00  0.00000000E+00  0.00000000E+00
  0.00000000E+00  0.00000000E+00  0.00000000E+00
